# Converted from AlN_ortho_cell.vesta (no atoms dropped)

         100  atoms
           2  atom types

  0.000000000000       17.050001000000  xlo xhi
  0.000000000000       29.531467000000  ylo yhi
-53.000000000000       53.000000000000  zlo zhi

Masses

           1    26.98153860   # Al
           2    14.00670000   # N

Atoms # atomic

         1    1   1.705000100000   0.984401920978   1.046890750000
         2    1   0.000000000000   3.937519089511   1.046890750000
         3    1   5.114983249999   0.984401920978   1.046890750000
         4    1   3.409983149999   3.937519089511   1.046890750000
         5    1   1.705000100000   6.890665789511   1.046890750000
         6    1   0.000000000000   9.843842020978   1.046890750000
         7    1   8.524983449999   0.984401920978   1.046890750000
         8    1   6.820000400000   3.937519089511   1.046890750000
         9    1   5.114983249999   6.890665789511   1.046890750000
        10    1   3.409983149999   9.843842020978   1.046890750000
        11    1   1.705000100000  12.796959189511   1.046890750000
        12    1  11.934983649999   0.984401920978   1.046890750000
        13    1  10.230000600000   3.937519089511   1.046890750000
        14    1   8.524983449999   6.890665789511   1.046890750000
        15    1   6.820000400000   9.843842020978   1.046890750000
        16    1   5.114983249999  12.796959189511   1.046890750000
        17    1  15.344983849999   0.984401920978   1.046890750000
        18    1  13.639983749999   3.937519089511   1.046890750000
        19    1  11.934983649999   6.890665789511   1.046890750000
        20    1  10.230000600000   9.843842020978   1.046890750000
        21    1   8.524983449999  12.796959189511   1.046890750000
        22    2   0.000000000000   1.968774310489   1.046890750000
        23    2   3.410000200000   1.968774310489   1.046890750000
        24    2   1.705017150001   4.921891479022   1.046890750000
        25    2   0.000000000000   7.875038179022   1.046890750000
        26    2   6.820000400000   1.968774310489   1.046890750000
        27    2   5.115017350001   4.921891479022   1.046890750000
        28    2   3.410000200000   7.875038179022   1.046890750000
        29    2   1.705017150001  10.828214410489   1.046890750000
        30    2   0.000000000000  13.781331579022   1.046890750000
        31    2  10.230017650001   1.968774310489   1.046890750000
        32    2   8.525000500000   4.921891479022   1.046890750000
        33    2   6.820000400000   7.875038179022   1.046890750000
        34    2   5.115017350001  10.828214410489   1.046890750000
        35    2   3.410000200000  13.781331579022   1.046890750000
        36    2  13.640017850001   1.968774310489   1.046890750000
        37    2  11.935017750001   4.921891479022   1.046890750000
        38    2  10.230017650001   7.875038179022   1.046890750000
        39    2   8.525000500000  10.828214410489   1.046890750000
        40    2   6.820000400000  13.781331579022   1.046890750000
        41    1   0.000000000000  15.750135420978   1.046890750000
        42    1   3.409983149999  15.750135420978   1.046890750000
        43    1   1.705000100000  18.703252589511   1.046890750000
        44    1   0.000000000000  21.656399289511   1.046890750000
        45    1   6.820000400000  15.750135420978   1.046890750000
        46    1   5.114983249999  18.703252589511   1.046890750000
        47    1   3.409983149999  21.656399289511   1.046890750000
        48    1   1.705000100000  24.609545989511   1.046890750000
        49    1   0.000000000000  27.562722220978   1.046890750000
        50    2   1.705017150001  16.734478279022   1.046890750000
        51    2   0.000000000000  19.687654510489   1.046890750000
        52    2   5.115017350001  16.734478279022   1.046890750000
        53    2   3.410000200000  19.687654510489   1.046890750000
        54    2   1.705017150001  22.640801210489   1.046890750000
        55    2   0.000000000000  25.593947910489   1.046890750000
        56    1  15.344983849999   6.890665789511   1.046890750000
        57    1  13.639983749999   9.843842020978   1.046890750000
        58    1  11.934983649999  12.796959189511   1.046890750000
        59    1  15.344983849999  12.796959189511   1.046890750000
        60    2  15.345000900000   4.921891479022   1.046890750000
        61    2  13.640017850001   7.875038179022   1.046890750000
        62    2  11.935017750001  10.828214410489   1.046890750000
        63    2  10.230017650001  13.781331579022   1.046890750000
        64    2  15.345000900000  10.828214410489   1.046890750000
        65    2  13.640017850001  13.781331579022   1.046890750000
        66    1  10.230000600000  15.750135420978   1.046890750000
        67    1   8.524983449999  18.703252589511   1.046890750000
        68    1   6.820000400000  21.656399289511   1.046890750000
        69    1   5.114983249999  24.609545989511   1.046890750000
        70    1   3.409983149999  27.562722220978   1.046890750000
        71    1  13.639983749999  15.750135420978   1.046890750000
        72    1  11.934983649999  18.703252589511   1.046890750000
        73    1  10.230000600000  21.656399289511   1.046890750000
        74    1   8.524983449999  24.609545989511   1.046890750000
        75    1   6.820000400000  27.562722220978   1.046890750000
        76    1  15.344983849999  18.703252589511   1.046890750000
        77    1  13.639983749999  21.656399289511   1.046890750000
        78    1  11.934983649999  24.609545989511   1.046890750000
        79    1  10.230000600000  27.562722220978   1.046890750000
        80    1  15.344983849999  24.609545989511   1.046890750000
        81    1  13.639983749999  27.562722220978   1.046890750000
        82    2   8.525000500000  16.734478279022   1.046890750000
        83    2   6.820000400000  19.687654510489   1.046890750000
        84    2   5.115017350001  22.640801210489   1.046890750000
        85    2   3.410000200000  25.593947910489   1.046890750000
        86    2   1.705017150001  28.547065079022   1.046890750000
        87    2  11.935017750001  16.734478279022   1.046890750000
        88    2  10.230017650001  19.687654510489   1.046890750000
        89    2   8.525000500000  22.640801210489   1.046890750000
        90    2   6.820000400000  25.593947910489   1.046890750000
        91    2   5.115017350001  28.547065079022   1.046890750000
        92    2  15.345000900000  16.734478279022   1.046890750000
        93    2  13.640017850001  19.687654510489   1.046890750000
        94    2  11.935017750001  22.640801210489   1.046890750000
        95    2  10.230017650001  25.593947910489   1.046890750000
        96    2   8.525000500000  28.547065079022   1.046890750000
        97    2  15.345000900000  22.640801210489   1.046890750000
        98    2  13.640017850001  25.593947910489   1.046890750000
        99    2  11.935017750001  28.547065079022   1.046890750000
       100    2  15.345000900000  28.547065079022   1.046890750000
