 # Lammps sturcture data file
  
        4576  atoms
           3  atom types
 
      0.000000000000     153.563624620000  xlo xhi
      0.000000000000     150.039999980000  ylo yhi
      0.000000000000     100.000000000000  zlo zhi
 
Masses
 
            1   26.98153860             # Al
            2   14.00700000             # N
            3   69.72300000             # Ga
 
Atoms # atomic
 
         1    1        0.984382200000       1.705000000000      50.000000000000
         2    1        3.937528840000       0.000000000000      50.000000000000
         3    1        0.984382200000       5.115000000000      50.000000000000
         4    1        3.937528840000       3.410000000000      50.000000000000
         5    1        0.984382200000       8.525000000000      50.000000000000
         6    1        3.937528840000       6.819999990000      50.000000000000
         7    1        0.984382200000      11.935000000000      50.000000000000
         8    1        3.937528840000      10.230000000000      50.000000000000
         9    1        6.890675460000       1.705000000000      50.000000000000
        10    1        9.843822090000       0.000000000000      50.000000000000
        11    1        6.890675460000       5.115000000000      50.000000000000
        12    1        9.843822090000       3.410000000000      50.000000000000
        13    1        6.890675460000       8.525000000000      50.000000000000
        14    1        9.843822090000       6.819999990000      50.000000000000
        15    1        6.890675460000      11.935000000000      50.000000000000
        16    1        9.843822090000      10.230000000000      50.000000000000
        17    2        0.000000000000       0.000000000000      50.000000000000
        18    2        2.953146620000       1.705000000000      50.000000000000
        19    2        0.000000000000       3.410000000000      50.000000000000
        20    2        2.953146620000       5.115000000000      50.000000000000
        21    2        0.000000000000       6.819999990000      50.000000000000
        22    2        2.953146620000       8.525000000000      50.000000000000
        23    2        0.000000000000      10.230000000000      50.000000000000
        24    2        2.953146620000      11.935000000000      50.000000000000
        25    2        5.906293250000       0.000000000000      50.000000000000
        26    2        8.859439880000       1.705000000000      50.000000000000
        27    2        5.906293250000       3.410000000000      50.000000000000
        28    2        8.859439880000       5.115000000000      50.000000000000
        29    2        5.906293250000       6.819999990000      50.000000000000
        30    2        8.859439880000       8.525000000000      50.000000000000
        31    2        5.906293250000      10.230000000000      50.000000000000
        32    2        8.859439880000      11.935000000000      50.000000000000
        33    1       12.796968710000       1.705000000000      50.000000000000
        34    1       15.750115350000       0.000000000000      50.000000000000
        35    1       12.796968710000       5.115000000000      50.000000000000
        36    1       15.750115350000       3.410000000000      50.000000000000
        37    1       12.796968710000       8.525000000000      50.000000000000
        38    1       15.750115350000       6.819999990000      50.000000000000
        39    3       12.796968710000      11.935000000000      50.000000000000
        40    1       15.750115350000      10.230000000000      50.000000000000
        41    1       18.703261970000       1.705000000000      50.000000000000
        42    1       21.656408600000       0.000000000000      50.000000000000
        43    1       18.703261970000       5.115000000000      50.000000000000
        44    1       21.656408600000       3.410000000000      50.000000000000
        45    1       18.703261970000       8.525000000000      50.000000000000
        46    1       21.656408600000       6.819999990000      50.000000000000
        47    1       18.703261970000      11.935000000000      50.000000000000
        48    1       21.656408600000      10.230000000000      50.000000000000
        49    2       11.812586510000       0.000000000000      50.000000000000
        50    2       14.765733130000       1.705000000000      50.000000000000
        51    2       11.812586510000       3.410000000000      50.000000000000
        52    2       14.765733130000       5.115000000000      50.000000000000
        53    2       11.812586510000       6.819999990000      50.000000000000
        54    2       14.765733130000       8.525000000000      50.000000000000
        55    2       11.812586510000      10.230000000000      50.000000000000
        56    2       14.765733130000      11.935000000000      50.000000000000
        57    2       17.718879760000       0.000000000000      50.000000000000
        58    2       20.672026390000       1.705000000000      50.000000000000
        59    2       17.718879760000       3.410000000000      50.000000000000
        60    2       20.672026390000       5.115000000000      50.000000000000
        61    2       17.718879760000       6.819999990000      50.000000000000
        62    2       20.672026390000       8.525000000000      50.000000000000
        63    2       17.718879760000      10.230000000000      50.000000000000
        64    2       20.672026390000      11.935000000000      50.000000000000
        65    1       24.609555220000       1.705000000000      50.000000000000
        66    1       27.562701850000       0.000000000000      50.000000000000
        67    3       24.609555220000       5.115000000000      50.000000000000
        68    1       27.562701850000       3.410000000000      50.000000000000
        69    1       24.609555220000       8.525000000000      50.000000000000
        70    1       27.562701850000       6.819999990000      50.000000000000
        71    1       24.609555220000      11.935000000000      50.000000000000
        72    3       27.562701850000      10.230000000000      50.000000000000
        73    3       30.515848480000       1.705000000000      50.000000000000
        74    1       33.468995110000       0.000000000000      50.000000000000
        75    1       30.515848480000       5.115000000000      50.000000000000
        76    1       33.468995110000       3.410000000000      50.000000000000
        77    1       30.515848480000       8.525000000000      50.000000000000
        78    3       33.468995110000       6.819999990000      50.000000000000
        79    1       30.515848480000      11.935000000000      50.000000000000
        80    1       33.468995110000      10.230000000000      50.000000000000
        81    2       23.625173020000       0.000000000000      50.000000000000
        82    2       26.578319640000       1.705000000000      50.000000000000
        83    2       23.625173020000       3.410000000000      50.000000000000
        84    2       26.578319640000       5.115000000000      50.000000000000
        85    2       23.625173020000       6.819999990000      50.000000000000
        86    2       26.578319640000       8.525000000000      50.000000000000
        87    2       23.625173020000      10.230000000000      50.000000000000
        88    2       26.578319640000      11.935000000000      50.000000000000
        89    2       29.531466270000       0.000000000000      50.000000000000
        90    2       32.484612890000       1.705000000000      50.000000000000
        91    2       29.531466270000       3.410000000000      50.000000000000
        92    2       32.484612890000       5.115000000000      50.000000000000
        93    2       29.531466270000       6.819999990000      50.000000000000
        94    2       32.484612890000       8.525000000000      50.000000000000
        95    2       29.531466270000      10.230000000000      50.000000000000
        96    2       32.484612890000      11.935000000000      50.000000000000
        97    1       36.422141730000       1.705000000000      50.000000000000
        98    3       39.375288360000       0.000000000000      50.000000000000
        99    1       36.422141730000       5.115000000000      50.000000000000
       100    1       39.375288360000       3.410000000000      50.000000000000
       101    1       36.422141730000       8.525000000000      50.000000000000
       102    1       39.375288360000       6.819999990000      50.000000000000
       103    1       36.422141730000      11.935000000000      50.000000000000
       104    1       39.375288360000      10.230000000000      50.000000000000
       105    1       42.328434990000       1.705000000000      50.000000000000
       106    1       45.281581620000       0.000000000000      50.000000000000
       107    1       42.328434990000       5.115000000000      50.000000000000
       108    1       45.281581620000       3.410000000000      50.000000000000
       109    1       42.328434990000       8.525000000000      50.000000000000
       110    1       45.281581620000       6.819999990000      50.000000000000
       111    1       42.328434990000      11.935000000000      50.000000000000
       112    3       45.281581620000      10.230000000000      50.000000000000
       113    2       35.437759530000       0.000000000000      50.000000000000
       114    2       38.390906150000       1.705000000000      50.000000000000
       115    2       35.437759530000       3.410000000000      50.000000000000
       116    2       38.390906150000       5.115000000000      50.000000000000
       117    2       35.437759530000       6.819999990000      50.000000000000
       118    2       38.390906150000       8.525000000000      50.000000000000
       119    2       35.437759530000      10.230000000000      50.000000000000
       120    2       38.390906150000      11.935000000000      50.000000000000
       121    2       41.344052780000       0.000000000000      50.000000000000
       122    2       44.297199400000       1.705000000000      50.000000000000
       123    2       41.344052780000       3.410000000000      50.000000000000
       124    2       44.297199400000       5.115000000000      50.000000000000
       125    2       41.344052780000       6.819999990000      50.000000000000
       126    2       44.297199400000       8.525000000000      50.000000000000
       127    2       41.344052780000      10.230000000000      50.000000000000
       128    2       44.297199400000      11.935000000000      50.000000000000
       129    1       48.234728240000       1.705000000000      50.000000000000
       130    1       51.187874870000       0.000000000000      50.000000000000
       131    1       48.234728240000       5.115000000000      50.000000000000
       132    1       51.187874870000       3.410000000000      50.000000000000
       133    1       48.234728240000       8.525000000000      50.000000000000
       134    1       51.187874870000       6.819999990000      50.000000000000
       135    1       48.234728240000      11.935000000000      50.000000000000
       136    1       51.187874870000      10.230000000000      50.000000000000
       137    1       54.141021490000       1.705000000000      50.000000000000
       138    1       57.094168130000       0.000000000000      50.000000000000
       139    1       54.141021490000       5.115000000000      50.000000000000
       140    1       57.094168130000       3.410000000000      50.000000000000
       141    1       54.141021490000       8.525000000000      50.000000000000
       142    1       57.094168130000       6.819999990000      50.000000000000
       143    1       54.141021490000      11.935000000000      50.000000000000
       144    1       57.094168130000      10.230000000000      50.000000000000
       145    2       47.250346040000       0.000000000000      50.000000000000
       146    2       50.203492660000       1.705000000000      50.000000000000
       147    2       47.250346040000       3.410000000000      50.000000000000
       148    2       50.203492660000       5.115000000000      50.000000000000
       149    2       47.250346040000       6.819999990000      50.000000000000
       150    2       50.203492660000       8.525000000000      50.000000000000
       151    2       47.250346040000      10.230000000000      50.000000000000
       152    2       50.203492660000      11.935000000000      50.000000000000
       153    2       53.156639290000       0.000000000000      50.000000000000
       154    2       56.109785910000       1.705000000000      50.000000000000
       155    2       53.156639290000       3.410000000000      50.000000000000
       156    2       56.109785910000       5.115000000000      50.000000000000
       157    2       53.156639290000       6.819999990000      50.000000000000
       158    2       56.109785910000       8.525000000000      50.000000000000
       159    2       53.156639290000      10.230000000000      50.000000000000
       160    2       56.109785910000      11.935000000000      50.000000000000
       161    1       60.047314750000       1.705000000000      50.000000000000
       162    1       63.000461380000       0.000000000000      50.000000000000
       163    1       60.047314750000       5.115000000000      50.000000000000
       164    3       63.000461380000       3.410000000000      50.000000000000
       165    1       60.047314750000       8.525000000000      50.000000000000
       166    1       63.000461380000       6.819999990000      50.000000000000
       167    1       60.047314750000      11.935000000000      50.000000000000
       168    1       63.000461380000      10.230000000000      50.000000000000
       169    1       65.953608000000       1.705000000000      50.000000000000
       170    1       68.906754640000       0.000000000000      50.000000000000
       171    1       65.953608000000       5.115000000000      50.000000000000
       172    1       68.906754640000       3.410000000000      50.000000000000
       173    1       65.953608000000       8.525000000000      50.000000000000
       174    1       68.906754640000       6.819999990000      50.000000000000
       175    3       65.953608000000      11.935000000000      50.000000000000
       176    1       68.906754640000      10.230000000000      50.000000000000
       177    2       59.062932550000       0.000000000000      50.000000000000
       178    2       62.016079170000       1.705000000000      50.000000000000
       179    2       59.062932550000       3.410000000000      50.000000000000
       180    2       62.016079170000       5.115000000000      50.000000000000
       181    2       59.062932550000       6.819999990000      50.000000000000
       182    2       62.016079170000       8.525000000000      50.000000000000
       183    2       59.062932550000      10.230000000000      50.000000000000
       184    2       62.016079170000      11.935000000000      50.000000000000
       185    2       64.969225800000       0.000000000000      50.000000000000
       186    2       67.922372420000       1.705000000000      50.000000000000
       187    2       64.969225800000       3.410000000000      50.000000000000
       188    2       67.922372420000       5.115000000000      50.000000000000
       189    2       64.969225800000       6.819999990000      50.000000000000
       190    2       67.922372420000       8.525000000000      50.000000000000
       191    2       64.969225800000      10.230000000000      50.000000000000
       192    2       67.922372420000      11.935000000000      50.000000000000
       193    1       71.859901260000       1.705000000000      50.000000000000
       194    1       74.813047890000       0.000000000000      50.000000000000
       195    1       71.859901260000       5.115000000000      50.000000000000
       196    1       74.813047890000       3.410000000000      50.000000000000
       197    1       71.859901260000       8.525000000000      50.000000000000
       198    3       74.813047890000       6.819999990000      50.000000000000
       199    1       71.859901260000      11.935000000000      50.000000000000
       200    1       74.813047890000      10.230000000000      50.000000000000
       201    1       77.766194510000       1.705000000000      50.000000000000
       202    1       80.719341150000       0.000000000000      50.000000000000
       203    1       77.766194510000       5.115000000000      50.000000000000
       204    1       80.719341150000       3.410000000000      50.000000000000
       205    1       77.766194510000       8.525000000000      50.000000000000
       206    1       80.719341150000       6.819999990000      50.000000000000
       207    1       77.766194510000      11.935000000000      50.000000000000
       208    1       80.719341150000      10.230000000000      50.000000000000
       209    2       70.875519050000       0.000000000000      50.000000000000
       210    2       73.828665680000       1.705000000000      50.000000000000
       211    2       70.875519050000       3.410000000000      50.000000000000
       212    2       73.828665680000       5.115000000000      50.000000000000
       213    2       70.875519050000       6.819999990000      50.000000000000
       214    2       73.828665680000       8.525000000000      50.000000000000
       215    2       70.875519050000      10.230000000000      50.000000000000
       216    2       73.828665680000      11.935000000000      50.000000000000
       217    2       76.781812310000       0.000000000000      50.000000000000
       218    2       79.734958930000       1.705000000000      50.000000000000
       219    2       76.781812310000       3.410000000000      50.000000000000
       220    2       79.734958930000       5.115000000000      50.000000000000
       221    2       76.781812310000       6.819999990000      50.000000000000
       222    2       79.734958930000       8.525000000000      50.000000000000
       223    2       76.781812310000      10.230000000000      50.000000000000
       224    2       79.734958930000      11.935000000000      50.000000000000
       225    3       83.672487770000       1.705000000000      50.000000000000
       226    1       86.625634400000       0.000000000000      50.000000000000
       227    1       83.672487770000       5.115000000000      50.000000000000
       228    3       86.625634400000       3.410000000000      50.000000000000
       229    1       83.672487770000       8.525000000000      50.000000000000
       230    1       86.625634400000       6.819999990000      50.000000000000
       231    1       83.672487770000      11.935000000000      50.000000000000
       232    1       86.625634400000      10.230000000000      50.000000000000
       233    1       89.578781020000       1.705000000000      50.000000000000
       234    1       92.531927650000       0.000000000000      50.000000000000
       235    1       89.578781020000       5.115000000000      50.000000000000
       236    1       92.531927650000       3.410000000000      50.000000000000
       237    1       89.578781020000       8.525000000000      50.000000000000
       238    1       92.531927650000       6.819999990000      50.000000000000
       239    1       89.578781020000      11.935000000000      50.000000000000
       240    1       92.531927650000      10.230000000000      50.000000000000
       241    2       82.688105560000       0.000000000000      50.000000000000
       242    2       85.641252190000       1.705000000000      50.000000000000
       243    2       82.688105560000       3.410000000000      50.000000000000
       244    2       85.641252190000       5.115000000000      50.000000000000
       245    2       82.688105560000       6.819999990000      50.000000000000
       246    2       85.641252190000       8.525000000000      50.000000000000
       247    2       82.688105560000      10.230000000000      50.000000000000
       248    2       85.641252190000      11.935000000000      50.000000000000
       249    2       88.594398820000       0.000000000000      50.000000000000
       250    2       91.547545440000       1.705000000000      50.000000000000
       251    2       88.594398820000       3.410000000000      50.000000000000
       252    2       91.547545440000       5.115000000000      50.000000000000
       253    2       88.594398820000       6.819999990000      50.000000000000
       254    2       91.547545440000       8.525000000000      50.000000000000
       255    2       88.594398820000      10.230000000000      50.000000000000
       256    2       91.547545440000      11.935000000000      50.000000000000
       257    1       95.485074280000       1.705000000000      50.000000000000
       258    1       98.438220910000       0.000000000000      50.000000000000
       259    1       95.485074280000       5.115000000000      50.000000000000
       260    1       98.438220910000       3.410000000000      50.000000000000
       261    1       95.485074280000       8.525000000000      50.000000000000
       262    1       98.438220910000       6.819999990000      50.000000000000
       263    1       95.485074280000      11.935000000000      50.000000000000
       264    1       98.438220910000      10.230000000000      50.000000000000
       265    1      101.391367530000       1.705000000000      50.000000000000
       266    1      104.344514160000       0.000000000000      50.000000000000
       267    1      101.391367530000       5.115000000000      50.000000000000
       268    1      104.344514160000       3.410000000000      50.000000000000
       269    1      101.391367530000       8.525000000000      50.000000000000
       270    1      104.344514160000       6.819999990000      50.000000000000
       271    1      101.391367530000      11.935000000000      50.000000000000
       272    3      104.344514160000      10.230000000000      50.000000000000
       273    2       94.500692070000       0.000000000000      50.000000000000
       274    2       97.453838690000       1.705000000000      50.000000000000
       275    2       94.500692070000       3.410000000000      50.000000000000
       276    2       97.453838690000       5.115000000000      50.000000000000
       277    2       94.500692070000       6.819999990000      50.000000000000
       278    2       97.453838690000       8.525000000000      50.000000000000
       279    2       94.500692070000      10.230000000000      50.000000000000
       280    2       97.453838690000      11.935000000000      50.000000000000
       281    2      100.406985330000       0.000000000000      50.000000000000
       282    2      103.360131950000       1.705000000000      50.000000000000
       283    2      100.406985330000       3.410000000000      50.000000000000
       284    2      103.360131950000       5.115000000000      50.000000000000
       285    2      100.406985330000       6.819999990000      50.000000000000
       286    2      103.360131950000       8.525000000000      50.000000000000
       287    2      100.406985330000      10.230000000000      50.000000000000
       288    2      103.360131950000      11.935000000000      50.000000000000
       289    1      107.297660790000       1.705000000000      50.000000000000
       290    1      110.250807420000       0.000000000000      50.000000000000
       291    3      107.297660790000       5.115000000000      50.000000000000
       292    1      110.250807420000       3.410000000000      50.000000000000
       293    3      107.297660790000       8.525000000000      50.000000000000
       294    1      110.250807420000       6.819999990000      50.000000000000
       295    3      107.297660790000      11.935000000000      50.000000000000
       296    1      110.250807420000      10.230000000000      50.000000000000
       297    1      113.203954040000       1.705000000000      50.000000000000
       298    1      116.157100670000       0.000000000000      50.000000000000
       299    1      113.203954040000       5.115000000000      50.000000000000
       300    3      116.157100670000       3.410000000000      50.000000000000
       301    1      113.203954040000       8.525000000000      50.000000000000
       302    1      116.157100670000       6.819999990000      50.000000000000
       303    1      113.203954040000      11.935000000000      50.000000000000
       304    3      116.157100670000      10.230000000000      50.000000000000
       305    2      106.313278580000       0.000000000000      50.000000000000
       306    2      109.266425200000       1.705000000000      50.000000000000
       307    2      106.313278580000       3.410000000000      50.000000000000
       308    2      109.266425200000       5.115000000000      50.000000000000
       309    2      106.313278580000       6.819999990000      50.000000000000
       310    2      109.266425200000       8.525000000000      50.000000000000
       311    2      106.313278580000      10.230000000000      50.000000000000
       312    2      109.266425200000      11.935000000000      50.000000000000
       313    2      112.219571840000       0.000000000000      50.000000000000
       314    2      115.172718460000       1.705000000000      50.000000000000
       315    2      112.219571840000       3.410000000000      50.000000000000
       316    2      115.172718460000       5.115000000000      50.000000000000
       317    2      112.219571840000       6.819999990000      50.000000000000
       318    2      115.172718460000       8.525000000000      50.000000000000
       319    2      112.219571840000      10.230000000000      50.000000000000
       320    2      115.172718460000      11.935000000000      50.000000000000
       321    1      119.110247290000       1.705000000000      50.000000000000
       322    3      122.063393930000       0.000000000000      50.000000000000
       323    1      119.110247290000       5.115000000000      50.000000000000
       324    1      122.063393930000       3.410000000000      50.000000000000
       325    3      119.110247290000       8.525000000000      50.000000000000
       326    1      122.063393930000       6.819999990000      50.000000000000
       327    1      119.110247290000      11.935000000000      50.000000000000
       328    1      122.063393930000      10.230000000000      50.000000000000
       329    1      125.016540550000       1.705000000000      50.000000000000
       330    1      127.969687180000       0.000000000000      50.000000000000
       331    3      125.016540550000       5.115000000000      50.000000000000
       332    1      127.969687180000       3.410000000000      50.000000000000
       333    1      125.016540550000       8.525000000000      50.000000000000
       334    1      127.969687180000       6.819999990000      50.000000000000
       335    1      125.016540550000      11.935000000000      50.000000000000
       336    1      127.969687180000      10.230000000000      50.000000000000
       337    2      118.125865090000       0.000000000000      50.000000000000
       338    2      121.079011710000       1.705000000000      50.000000000000
       339    2      118.125865090000       3.410000000000      50.000000000000
       340    2      121.079011710000       5.115000000000      50.000000000000
       341    2      118.125865090000       6.819999990000      50.000000000000
       342    2      121.079011710000       8.525000000000      50.000000000000
       343    2      118.125865090000      10.230000000000      50.000000000000
       344    2      121.079011710000      11.935000000000      50.000000000000
       345    2      124.032158350000       0.000000000000      50.000000000000
       346    2      126.985304970000       1.705000000000      50.000000000000
       347    2      124.032158350000       3.410000000000      50.000000000000
       348    2      126.985304970000       5.115000000000      50.000000000000
       349    2      124.032158350000       6.819999990000      50.000000000000
       350    2      126.985304970000       8.525000000000      50.000000000000
       351    2      124.032158350000      10.230000000000      50.000000000000
       352    2      126.985304970000      11.935000000000      50.000000000000
       353    1      130.922833800000       1.705000000000      50.000000000000
       354    1      133.875980440000       0.000000000000      50.000000000000
       355    1      130.922833800000       5.115000000000      50.000000000000
       356    1      133.875980440000       3.410000000000      50.000000000000
       357    1      130.922833800000       8.525000000000      50.000000000000
       358    3      133.875980440000       6.819999990000      50.000000000000
       359    3      130.922833800000      11.935000000000      50.000000000000
       360    1      133.875980440000      10.230000000000      50.000000000000
       361    3      136.829127060000       1.705000000000      50.000000000000
       362    1      139.782273690000       0.000000000000      50.000000000000
       363    1      136.829127060000       5.115000000000      50.000000000000
       364    1      139.782273690000       3.410000000000      50.000000000000
       365    1      136.829127060000       8.525000000000      50.000000000000
       366    1      139.782273690000       6.819999990000      50.000000000000
       367    3      136.829127060000      11.935000000000      50.000000000000
       368    1      139.782273690000      10.230000000000      50.000000000000
       369    2      129.938451600000       0.000000000000      50.000000000000
       370    2      132.891598220000       1.705000000000      50.000000000000
       371    2      129.938451600000       3.410000000000      50.000000000000
       372    2      132.891598220000       5.115000000000      50.000000000000
       373    2      129.938451600000       6.819999990000      50.000000000000
       374    2      132.891598220000       8.525000000000      50.000000000000
       375    2      129.938451600000      10.230000000000      50.000000000000
       376    2      132.891598220000      11.935000000000      50.000000000000
       377    2      135.844744850000       0.000000000000      50.000000000000
       378    2      138.797891480000       1.705000000000      50.000000000000
       379    2      135.844744850000       3.410000000000      50.000000000000
       380    2      138.797891480000       5.115000000000      50.000000000000
       381    2      135.844744850000       6.819999990000      50.000000000000
       382    2      138.797891480000       8.525000000000      50.000000000000
       383    2      135.844744850000      10.230000000000      50.000000000000
       384    2      138.797891480000      11.935000000000      50.000000000000
       385    1      142.735420310000       1.705000000000      50.000000000000
       386    1      145.688566950000       0.000000000000      50.000000000000
       387    1      142.735420310000       5.115000000000      50.000000000000
       388    1      145.688566950000       3.410000000000      50.000000000000
       389    1      142.735420310000       8.525000000000      50.000000000000
       390    1      145.688566950000       6.819999990000      50.000000000000
       391    1      142.735420310000      11.935000000000      50.000000000000
       392    1      145.688566950000      10.230000000000      50.000000000000
       393    1      148.641713570000       1.705000000000      50.000000000000
       394    1      151.594860200000       0.000000000000      50.000000000000
       395    1      148.641713570000       5.115000000000      50.000000000000
       396    1      151.594860200000       3.410000000000      50.000000000000
       397    1      148.641713570000       8.525000000000      50.000000000000
       398    1      151.594860200000       6.819999990000      50.000000000000
       399    1      148.641713570000      11.935000000000      50.000000000000
       400    1      151.594860200000      10.230000000000      50.000000000000
       401    2      141.751038110000       0.000000000000      50.000000000000
       402    2      144.704184730000       1.705000000000      50.000000000000
       403    2      141.751038110000       3.410000000000      50.000000000000
       404    2      144.704184730000       5.115000000000      50.000000000000
       405    2      141.751038110000       6.819999990000      50.000000000000
       406    2      144.704184730000       8.525000000000      50.000000000000
       407    2      141.751038110000      10.230000000000      50.000000000000
       408    2      144.704184730000      11.935000000000      50.000000000000
       409    2      147.657331360000       0.000000000000      50.000000000000
       410    2      150.610477990000       1.705000000000      50.000000000000
       411    2      147.657331360000       3.410000000000      50.000000000000
       412    2      150.610477990000       5.115000000000      50.000000000000
       413    2      147.657331360000       6.819999990000      50.000000000000
       414    2      150.610477990000       8.525000000000      50.000000000000
       415    2      147.657331360000      10.230000000000      50.000000000000
       416    2      150.610477990000      11.935000000000      50.000000000000
       417    1        0.984382200000      15.344999990000      50.000000000000
       418    1        3.937528840000      13.640000000000      50.000000000000
       419    1        0.984382200000      18.755000000000      50.000000000000
       420    1        3.937528840000      17.050000000000      50.000000000000
       421    1        0.984382200000      22.165000000000      50.000000000000
       422    1        3.937528840000      20.459999990000      50.000000000000
       423    1        0.984382200000      25.575000000000      50.000000000000
       424    1        3.937528840000      23.869999990000      50.000000000000
       425    1        6.890675460000      15.344999990000      50.000000000000
       426    1        9.843822090000      13.640000000000      50.000000000000
       427    1        6.890675460000      18.755000000000      50.000000000000
       428    3        9.843822090000      17.050000000000      50.000000000000
       429    3        6.890675460000      22.165000000000      50.000000000000
       430    1        9.843822090000      20.459999990000      50.000000000000
       431    1        6.890675460000      25.575000000000      50.000000000000
       432    1        9.843822090000      23.869999990000      50.000000000000
       433    2        0.000000000000      13.640000000000      50.000000000000
       434    2        2.953146620000      15.344999990000      50.000000000000
       435    2        0.000000000000      17.050000000000      50.000000000000
       436    2        2.953146620000      18.755000000000      50.000000000000
       437    2        0.000000000000      20.459999990000      50.000000000000
       438    2        2.953146620000      22.165000000000      50.000000000000
       439    2        0.000000000000      23.869999990000      50.000000000000
       440    2        2.953146620000      25.575000000000      50.000000000000
       441    2        5.906293250000      13.640000000000      50.000000000000
       442    2        8.859439880000      15.344999990000      50.000000000000
       443    2        5.906293250000      17.050000000000      50.000000000000
       444    2        8.859439880000      18.755000000000      50.000000000000
       445    2        5.906293250000      20.459999990000      50.000000000000
       446    2        8.859439880000      22.165000000000      50.000000000000
       447    2        5.906293250000      23.869999990000      50.000000000000
       448    2        8.859439880000      25.575000000000      50.000000000000
       449    1       12.796968710000      15.344999990000      50.000000000000
       450    1       15.750115350000      13.640000000000      50.000000000000
       451    1       12.796968710000      18.755000000000      50.000000000000
       452    1       15.750115350000      17.050000000000      50.000000000000
       453    1       12.796968710000      22.165000000000      50.000000000000
       454    1       15.750115350000      20.459999990000      50.000000000000
       455    1       12.796968710000      25.575000000000      50.000000000000
       456    3       15.750115350000      23.869999990000      50.000000000000
       457    1       18.703261970000      15.344999990000      50.000000000000
       458    1       21.656408600000      13.640000000000      50.000000000000
       459    3       18.703261970000      18.755000000000      50.000000000000
       460    1       21.656408600000      17.050000000000      50.000000000000
       461    3       18.703261970000      22.165000000000      50.000000000000
       462    1       21.656408600000      20.459999990000      50.000000000000
       463    1       18.703261970000      25.575000000000      50.000000000000
       464    1       21.656408600000      23.869999990000      50.000000000000
       465    2       11.812586510000      13.640000000000      50.000000000000
       466    2       14.765733130000      15.344999990000      50.000000000000
       467    2       11.812586510000      17.050000000000      50.000000000000
       468    2       14.765733130000      18.755000000000      50.000000000000
       469    2       11.812586510000      20.459999990000      50.000000000000
       470    2       14.765733130000      22.165000000000      50.000000000000
       471    2       11.812586510000      23.869999990000      50.000000000000
       472    2       14.765733130000      25.575000000000      50.000000000000
       473    2       17.718879760000      13.640000000000      50.000000000000
       474    2       20.672026390000      15.344999990000      50.000000000000
       475    2       17.718879760000      17.050000000000      50.000000000000
       476    2       20.672026390000      18.755000000000      50.000000000000
       477    2       17.718879760000      20.459999990000      50.000000000000
       478    2       20.672026390000      22.165000000000      50.000000000000
       479    2       17.718879760000      23.869999990000      50.000000000000
       480    2       20.672026390000      25.575000000000      50.000000000000
       481    3       24.609555220000      15.344999990000      50.000000000000
       482    1       27.562701850000      13.640000000000      50.000000000000
       483    1       24.609555220000      18.755000000000      50.000000000000
       484    1       27.562701850000      17.050000000000      50.000000000000
       485    1       24.609555220000      22.165000000000      50.000000000000
       486    1       27.562701850000      20.459999990000      50.000000000000
       487    1       24.609555220000      25.575000000000      50.000000000000
       488    1       27.562701850000      23.869999990000      50.000000000000
       489    1       30.515848480000      15.344999990000      50.000000000000
       490    1       33.468995110000      13.640000000000      50.000000000000
       491    1       30.515848480000      18.755000000000      50.000000000000
       492    1       33.468995110000      17.050000000000      50.000000000000
       493    1       30.515848480000      22.165000000000      50.000000000000
       494    1       33.468995110000      20.459999990000      50.000000000000
       495    1       30.515848480000      25.575000000000      50.000000000000
       496    1       33.468995110000      23.869999990000      50.000000000000
       497    2       23.625173020000      13.640000000000      50.000000000000
       498    2       26.578319640000      15.344999990000      50.000000000000
       499    2       23.625173020000      17.050000000000      50.000000000000
       500    2       26.578319640000      18.755000000000      50.000000000000
       501    2       23.625173020000      20.459999990000      50.000000000000
       502    2       26.578319640000      22.165000000000      50.000000000000
       503    2       23.625173020000      23.869999990000      50.000000000000
       504    2       26.578319640000      25.575000000000      50.000000000000
       505    2       29.531466270000      13.640000000000      50.000000000000
       506    2       32.484612890000      15.344999990000      50.000000000000
       507    2       29.531466270000      17.050000000000      50.000000000000
       508    2       32.484612890000      18.755000000000      50.000000000000
       509    2       29.531466270000      20.459999990000      50.000000000000
       510    2       32.484612890000      22.165000000000      50.000000000000
       511    2       29.531466270000      23.869999990000      50.000000000000
       512    2       32.484612890000      25.575000000000      50.000000000000
       513    1       36.422141730000      15.344999990000      50.000000000000
       514    3       39.375288360000      13.640000000000      50.000000000000
       515    1       36.422141730000      18.755000000000      50.000000000000
       516    1       39.375288360000      17.050000000000      50.000000000000
       517    1       36.422141730000      22.165000000000      50.000000000000
       518    1       39.375288360000      20.459999990000      50.000000000000
       519    1       36.422141730000      25.575000000000      50.000000000000
       520    1       39.375288360000      23.869999990000      50.000000000000
       521    1       42.328434990000      15.344999990000      50.000000000000
       522    1       45.281581620000      13.640000000000      50.000000000000
       523    1       42.328434990000      18.755000000000      50.000000000000
       524    1       45.281581620000      17.050000000000      50.000000000000
       525    1       42.328434990000      22.165000000000      50.000000000000
       526    1       45.281581620000      20.459999990000      50.000000000000
       527    1       42.328434990000      25.575000000000      50.000000000000
       528    1       45.281581620000      23.869999990000      50.000000000000
       529    2       35.437759530000      13.640000000000      50.000000000000
       530    2       38.390906150000      15.344999990000      50.000000000000
       531    2       35.437759530000      17.050000000000      50.000000000000
       532    2       38.390906150000      18.755000000000      50.000000000000
       533    2       35.437759530000      20.459999990000      50.000000000000
       534    2       38.390906150000      22.165000000000      50.000000000000
       535    2       35.437759530000      23.869999990000      50.000000000000
       536    2       38.390906150000      25.575000000000      50.000000000000
       537    2       41.344052780000      13.640000000000      50.000000000000
       538    2       44.297199400000      15.344999990000      50.000000000000
       539    2       41.344052780000      17.050000000000      50.000000000000
       540    2       44.297199400000      18.755000000000      50.000000000000
       541    2       41.344052780000      20.459999990000      50.000000000000
       542    2       44.297199400000      22.165000000000      50.000000000000
       543    2       41.344052780000      23.869999990000      50.000000000000
       544    2       44.297199400000      25.575000000000      50.000000000000
       545    3       48.234728240000      15.344999990000      50.000000000000
       546    1       51.187874870000      13.640000000000      50.000000000000
       547    1       48.234728240000      18.755000000000      50.000000000000
       548    1       51.187874870000      17.050000000000      50.000000000000
       549    1       48.234728240000      22.165000000000      50.000000000000
       550    1       51.187874870000      20.459999990000      50.000000000000
       551    1       48.234728240000      25.575000000000      50.000000000000
       552    1       51.187874870000      23.869999990000      50.000000000000
       553    1       54.141021490000      15.344999990000      50.000000000000
       554    1       57.094168130000      13.640000000000      50.000000000000
       555    1       54.141021490000      18.755000000000      50.000000000000
       556    1       57.094168130000      17.050000000000      50.000000000000
       557    1       54.141021490000      22.165000000000      50.000000000000
       558    1       57.094168130000      20.459999990000      50.000000000000
       559    3       54.141021490000      25.575000000000      50.000000000000
       560    1       57.094168130000      23.869999990000      50.000000000000
       561    2       47.250346040000      13.640000000000      50.000000000000
       562    2       50.203492660000      15.344999990000      50.000000000000
       563    2       47.250346040000      17.050000000000      50.000000000000
       564    2       50.203492660000      18.755000000000      50.000000000000
       565    2       47.250346040000      20.459999990000      50.000000000000
       566    2       50.203492660000      22.165000000000      50.000000000000
       567    2       47.250346040000      23.869999990000      50.000000000000
       568    2       50.203492660000      25.575000000000      50.000000000000
       569    2       53.156639290000      13.640000000000      50.000000000000
       570    2       56.109785910000      15.344999990000      50.000000000000
       571    2       53.156639290000      17.050000000000      50.000000000000
       572    2       56.109785910000      18.755000000000      50.000000000000
       573    2       53.156639290000      20.459999990000      50.000000000000
       574    2       56.109785910000      22.165000000000      50.000000000000
       575    2       53.156639290000      23.869999990000      50.000000000000
       576    2       56.109785910000      25.575000000000      50.000000000000
       577    1       60.047314750000      15.344999990000      50.000000000000
       578    1       63.000461380000      13.640000000000      50.000000000000
       579    1       60.047314750000      18.755000000000      50.000000000000
       580    1       63.000461380000      17.050000000000      50.000000000000
       581    1       60.047314750000      22.165000000000      50.000000000000
       582    1       63.000461380000      20.459999990000      50.000000000000
       583    1       60.047314750000      25.575000000000      50.000000000000
       584    1       63.000461380000      23.869999990000      50.000000000000
       585    1       65.953608000000      15.344999990000      50.000000000000
       586    1       68.906754640000      13.640000000000      50.000000000000
       587    1       65.953608000000      18.755000000000      50.000000000000
       588    1       68.906754640000      17.050000000000      50.000000000000
       589    1       65.953608000000      22.165000000000      50.000000000000
       590    1       68.906754640000      20.459999990000      50.000000000000
       591    1       65.953608000000      25.575000000000      50.000000000000
       592    1       68.906754640000      23.869999990000      50.000000000000
       593    2       59.062932550000      13.640000000000      50.000000000000
       594    2       62.016079170000      15.344999990000      50.000000000000
       595    2       59.062932550000      17.050000000000      50.000000000000
       596    2       62.016079170000      18.755000000000      50.000000000000
       597    2       59.062932550000      20.459999990000      50.000000000000
       598    2       62.016079170000      22.165000000000      50.000000000000
       599    2       59.062932550000      23.869999990000      50.000000000000
       600    2       62.016079170000      25.575000000000      50.000000000000
       601    2       64.969225800000      13.640000000000      50.000000000000
       602    2       67.922372420000      15.344999990000      50.000000000000
       603    2       64.969225800000      17.050000000000      50.000000000000
       604    2       67.922372420000      18.755000000000      50.000000000000
       605    2       64.969225800000      20.459999990000      50.000000000000
       606    2       67.922372420000      22.165000000000      50.000000000000
       607    2       64.969225800000      23.869999990000      50.000000000000
       608    2       67.922372420000      25.575000000000      50.000000000000
       609    1       71.859901260000      15.344999990000      50.000000000000
       610    1       74.813047890000      13.640000000000      50.000000000000
       611    1       71.859901260000      18.755000000000      50.000000000000
       612    1       74.813047890000      17.050000000000      50.000000000000
       613    1       71.859901260000      22.165000000000      50.000000000000
       614    1       74.813047890000      20.459999990000      50.000000000000
       615    1       71.859901260000      25.575000000000      50.000000000000
       616    1       74.813047890000      23.869999990000      50.000000000000
       617    1       77.766194510000      15.344999990000      50.000000000000
       618    1       80.719341150000      13.640000000000      50.000000000000
       619    1       77.766194510000      18.755000000000      50.000000000000
       620    1       80.719341150000      17.050000000000      50.000000000000
       621    1       77.766194510000      22.165000000000      50.000000000000
       622    1       80.719341150000      20.459999990000      50.000000000000
       623    1       77.766194510000      25.575000000000      50.000000000000
       624    1       80.719341150000      23.869999990000      50.000000000000
       625    2       70.875519050000      13.640000000000      50.000000000000
       626    2       73.828665680000      15.344999990000      50.000000000000
       627    2       70.875519050000      17.050000000000      50.000000000000
       628    2       73.828665680000      18.755000000000      50.000000000000
       629    2       70.875519050000      20.459999990000      50.000000000000
       630    2       73.828665680000      22.165000000000      50.000000000000
       631    2       70.875519050000      23.869999990000      50.000000000000
       632    2       73.828665680000      25.575000000000      50.000000000000
       633    2       76.781812310000      13.640000000000      50.000000000000
       634    2       79.734958930000      15.344999990000      50.000000000000
       635    2       76.781812310000      17.050000000000      50.000000000000
       636    2       79.734958930000      18.755000000000      50.000000000000
       637    2       76.781812310000      20.459999990000      50.000000000000
       638    2       79.734958930000      22.165000000000      50.000000000000
       639    2       76.781812310000      23.869999990000      50.000000000000
       640    2       79.734958930000      25.575000000000      50.000000000000
       641    1       83.672487770000      15.344999990000      50.000000000000
       642    1       86.625634400000      13.640000000000      50.000000000000
       643    1       83.672487770000      18.755000000000      50.000000000000
       644    1       86.625634400000      17.050000000000      50.000000000000
       645    1       83.672487770000      22.165000000000      50.000000000000
       646    1       86.625634400000      20.459999990000      50.000000000000
       647    1       83.672487770000      25.575000000000      50.000000000000
       648    1       86.625634400000      23.869999990000      50.000000000000
       649    3       89.578781020000      15.344999990000      50.000000000000
       650    1       92.531927650000      13.640000000000      50.000000000000
       651    1       89.578781020000      18.755000000000      50.000000000000
       652    1       92.531927650000      17.050000000000      50.000000000000
       653    1       89.578781020000      22.165000000000      50.000000000000
       654    1       92.531927650000      20.459999990000      50.000000000000
       655    1       89.578781020000      25.575000000000      50.000000000000
       656    1       92.531927650000      23.869999990000      50.000000000000
       657    2       82.688105560000      13.640000000000      50.000000000000
       658    2       85.641252190000      15.344999990000      50.000000000000
       659    2       82.688105560000      17.050000000000      50.000000000000
       660    2       85.641252190000      18.755000000000      50.000000000000
       661    2       82.688105560000      20.459999990000      50.000000000000
       662    2       85.641252190000      22.165000000000      50.000000000000
       663    2       82.688105560000      23.869999990000      50.000000000000
       664    2       85.641252190000      25.575000000000      50.000000000000
       665    2       88.594398820000      13.640000000000      50.000000000000
       666    2       91.547545440000      15.344999990000      50.000000000000
       667    2       88.594398820000      17.050000000000      50.000000000000
       668    2       91.547545440000      18.755000000000      50.000000000000
       669    2       88.594398820000      20.459999990000      50.000000000000
       670    2       91.547545440000      22.165000000000      50.000000000000
       671    2       88.594398820000      23.869999990000      50.000000000000
       672    2       91.547545440000      25.575000000000      50.000000000000
       673    3       95.485074280000      15.344999990000      50.000000000000
       674    1       98.438220910000      13.640000000000      50.000000000000
       675    1       95.485074280000      18.755000000000      50.000000000000
       676    1       98.438220910000      17.050000000000      50.000000000000
       677    1       95.485074280000      22.165000000000      50.000000000000
       678    1       98.438220910000      20.459999990000      50.000000000000
       679    1       95.485074280000      25.575000000000      50.000000000000
       680    1       98.438220910000      23.869999990000      50.000000000000
       681    1      101.391367530000      15.344999990000      50.000000000000
       682    1      104.344514160000      13.640000000000      50.000000000000
       683    3      101.391367530000      18.755000000000      50.000000000000
       684    1      104.344514160000      17.050000000000      50.000000000000
       685    1      101.391367530000      22.165000000000      50.000000000000
       686    1      104.344514160000      20.459999990000      50.000000000000
       687    1      101.391367530000      25.575000000000      50.000000000000
       688    1      104.344514160000      23.869999990000      50.000000000000
       689    2       94.500692070000      13.640000000000      50.000000000000
       690    2       97.453838690000      15.344999990000      50.000000000000
       691    2       94.500692070000      17.050000000000      50.000000000000
       692    2       97.453838690000      18.755000000000      50.000000000000
       693    2       94.500692070000      20.459999990000      50.000000000000
       694    2       97.453838690000      22.165000000000      50.000000000000
       695    2       94.500692070000      23.869999990000      50.000000000000
       696    2       97.453838690000      25.575000000000      50.000000000000
       697    2      100.406985330000      13.640000000000      50.000000000000
       698    2      103.360131950000      15.344999990000      50.000000000000
       699    2      100.406985330000      17.050000000000      50.000000000000
       700    2      103.360131950000      18.755000000000      50.000000000000
       701    2      100.406985330000      20.459999990000      50.000000000000
       702    2      103.360131950000      22.165000000000      50.000000000000
       703    2      100.406985330000      23.869999990000      50.000000000000
       704    2      103.360131950000      25.575000000000      50.000000000000
       705    1      107.297660790000      15.344999990000      50.000000000000
       706    1      110.250807420000      13.640000000000      50.000000000000
       707    1      107.297660790000      18.755000000000      50.000000000000
       708    1      110.250807420000      17.050000000000      50.000000000000
       709    1      107.297660790000      22.165000000000      50.000000000000
       710    1      110.250807420000      20.459999990000      50.000000000000
       711    1      107.297660790000      25.575000000000      50.000000000000
       712    1      110.250807420000      23.869999990000      50.000000000000
       713    1      113.203954040000      15.344999990000      50.000000000000
       714    1      116.157100670000      13.640000000000      50.000000000000
       715    1      113.203954040000      18.755000000000      50.000000000000
       716    3      116.157100670000      17.050000000000      50.000000000000
       717    1      113.203954040000      22.165000000000      50.000000000000
       718    1      116.157100670000      20.459999990000      50.000000000000
       719    3      113.203954040000      25.575000000000      50.000000000000
       720    1      116.157100670000      23.869999990000      50.000000000000
       721    2      106.313278580000      13.640000000000      50.000000000000
       722    2      109.266425200000      15.344999990000      50.000000000000
       723    2      106.313278580000      17.050000000000      50.000000000000
       724    2      109.266425200000      18.755000000000      50.000000000000
       725    2      106.313278580000      20.459999990000      50.000000000000
       726    2      109.266425200000      22.165000000000      50.000000000000
       727    2      106.313278580000      23.869999990000      50.000000000000
       728    2      109.266425200000      25.575000000000      50.000000000000
       729    2      112.219571840000      13.640000000000      50.000000000000
       730    2      115.172718460000      15.344999990000      50.000000000000
       731    2      112.219571840000      17.050000000000      50.000000000000
       732    2      115.172718460000      18.755000000000      50.000000000000
       733    2      112.219571840000      20.459999990000      50.000000000000
       734    2      115.172718460000      22.165000000000      50.000000000000
       735    2      112.219571840000      23.869999990000      50.000000000000
       736    2      115.172718460000      25.575000000000      50.000000000000
       737    3      119.110247290000      15.344999990000      50.000000000000
       738    1      122.063393930000      13.640000000000      50.000000000000
       739    1      119.110247290000      18.755000000000      50.000000000000
       740    1      122.063393930000      17.050000000000      50.000000000000
       741    1      119.110247290000      22.165000000000      50.000000000000
       742    1      122.063393930000      20.459999990000      50.000000000000
       743    1      119.110247290000      25.575000000000      50.000000000000
       744    1      122.063393930000      23.869999990000      50.000000000000
       745    1      125.016540550000      15.344999990000      50.000000000000
       746    1      127.969687180000      13.640000000000      50.000000000000
       747    1      125.016540550000      18.755000000000      50.000000000000
       748    1      127.969687180000      17.050000000000      50.000000000000
       749    1      125.016540550000      22.165000000000      50.000000000000
       750    1      127.969687180000      20.459999990000      50.000000000000
       751    1      125.016540550000      25.575000000000      50.000000000000
       752    1      127.969687180000      23.869999990000      50.000000000000
       753    2      118.125865090000      13.640000000000      50.000000000000
       754    2      121.079011710000      15.344999990000      50.000000000000
       755    2      118.125865090000      17.050000000000      50.000000000000
       756    2      121.079011710000      18.755000000000      50.000000000000
       757    2      118.125865090000      20.459999990000      50.000000000000
       758    2      121.079011710000      22.165000000000      50.000000000000
       759    2      118.125865090000      23.869999990000      50.000000000000
       760    2      121.079011710000      25.575000000000      50.000000000000
       761    2      124.032158350000      13.640000000000      50.000000000000
       762    2      126.985304970000      15.344999990000      50.000000000000
       763    2      124.032158350000      17.050000000000      50.000000000000
       764    2      126.985304970000      18.755000000000      50.000000000000
       765    2      124.032158350000      20.459999990000      50.000000000000
       766    2      126.985304970000      22.165000000000      50.000000000000
       767    2      124.032158350000      23.869999990000      50.000000000000
       768    2      126.985304970000      25.575000000000      50.000000000000
       769    1      130.922833800000      15.344999990000      50.000000000000
       770    1      133.875980440000      13.640000000000      50.000000000000
       771    1      130.922833800000      18.755000000000      50.000000000000
       772    1      133.875980440000      17.050000000000      50.000000000000
       773    3      130.922833800000      22.165000000000      50.000000000000
       774    1      133.875980440000      20.459999990000      50.000000000000
       775    1      130.922833800000      25.575000000000      50.000000000000
       776    1      133.875980440000      23.869999990000      50.000000000000
       777    1      136.829127060000      15.344999990000      50.000000000000
       778    1      139.782273690000      13.640000000000      50.000000000000
       779    3      136.829127060000      18.755000000000      50.000000000000
       780    1      139.782273690000      17.050000000000      50.000000000000
       781    1      136.829127060000      22.165000000000      50.000000000000
       782    1      139.782273690000      20.459999990000      50.000000000000
       783    1      136.829127060000      25.575000000000      50.000000000000
       784    1      139.782273690000      23.869999990000      50.000000000000
       785    2      129.938451600000      13.640000000000      50.000000000000
       786    2      132.891598220000      15.344999990000      50.000000000000
       787    2      129.938451600000      17.050000000000      50.000000000000
       788    2      132.891598220000      18.755000000000      50.000000000000
       789    2      129.938451600000      20.459999990000      50.000000000000
       790    2      132.891598220000      22.165000000000      50.000000000000
       791    2      129.938451600000      23.869999990000      50.000000000000
       792    2      132.891598220000      25.575000000000      50.000000000000
       793    2      135.844744850000      13.640000000000      50.000000000000
       794    2      138.797891480000      15.344999990000      50.000000000000
       795    2      135.844744850000      17.050000000000      50.000000000000
       796    2      138.797891480000      18.755000000000      50.000000000000
       797    2      135.844744850000      20.459999990000      50.000000000000
       798    2      138.797891480000      22.165000000000      50.000000000000
       799    2      135.844744850000      23.869999990000      50.000000000000
       800    2      138.797891480000      25.575000000000      50.000000000000
       801    1      142.735420310000      15.344999990000      50.000000000000
       802    1      145.688566950000      13.640000000000      50.000000000000
       803    1      142.735420310000      18.755000000000      50.000000000000
       804    1      145.688566950000      17.050000000000      50.000000000000
       805    1      142.735420310000      22.165000000000      50.000000000000
       806    1      145.688566950000      20.459999990000      50.000000000000
       807    1      142.735420310000      25.575000000000      50.000000000000
       808    1      145.688566950000      23.869999990000      50.000000000000
       809    1      148.641713570000      15.344999990000      50.000000000000
       810    1      151.594860200000      13.640000000000      50.000000000000
       811    1      148.641713570000      18.755000000000      50.000000000000
       812    1      151.594860200000      17.050000000000      50.000000000000
       813    1      148.641713570000      22.165000000000      50.000000000000
       814    1      151.594860200000      20.459999990000      50.000000000000
       815    1      148.641713570000      25.575000000000      50.000000000000
       816    1      151.594860200000      23.869999990000      50.000000000000
       817    2      141.751038110000      13.640000000000      50.000000000000
       818    2      144.704184730000      15.344999990000      50.000000000000
       819    2      141.751038110000      17.050000000000      50.000000000000
       820    2      144.704184730000      18.755000000000      50.000000000000
       821    2      141.751038110000      20.459999990000      50.000000000000
       822    2      144.704184730000      22.165000000000      50.000000000000
       823    2      141.751038110000      23.869999990000      50.000000000000
       824    2      144.704184730000      25.575000000000      50.000000000000
       825    2      147.657331360000      13.640000000000      50.000000000000
       826    2      150.610477990000      15.344999990000      50.000000000000
       827    2      147.657331360000      17.050000000000      50.000000000000
       828    2      150.610477990000      18.755000000000      50.000000000000
       829    2      147.657331360000      20.459999990000      50.000000000000
       830    2      150.610477990000      22.165000000000      50.000000000000
       831    2      147.657331360000      23.869999990000      50.000000000000
       832    2      150.610477990000      25.575000000000      50.000000000000
       833    1        0.984382200000      28.984999990000      50.000000000000
       834    1        3.937528840000      27.280000000000      50.000000000000
       835    1        0.984382200000      32.394999990000      50.000000000000
       836    1        3.937528840000      30.690000000000      50.000000000000
       837    1        0.984382200000      35.805000000000      50.000000000000
       838    1        3.937528840000      34.099999990000      50.000000000000
       839    1        0.984382200000      39.215000000000      50.000000000000
       840    1        3.937528840000      37.509999990000      50.000000000000
       841    1        6.890675460000      28.984999990000      50.000000000000
       842    1        9.843822090000      27.280000000000      50.000000000000
       843    3        6.890675460000      32.394999990000      50.000000000000
       844    3        9.843822090000      30.690000000000      50.000000000000
       845    1        6.890675460000      35.805000000000      50.000000000000
       846    1        9.843822090000      34.099999990000      50.000000000000
       847    1        6.890675460000      39.215000000000      50.000000000000
       848    1        9.843822090000      37.509999990000      50.000000000000
       849    2        0.000000000000      27.280000000000      50.000000000000
       850    2        2.953146620000      28.984999990000      50.000000000000
       851    2        0.000000000000      30.690000000000      50.000000000000
       852    2        2.953146620000      32.394999990000      50.000000000000
       853    2        0.000000000000      34.099999990000      50.000000000000
       854    2        2.953146620000      35.805000000000      50.000000000000
       855    2        0.000000000000      37.509999990000      50.000000000000
       856    2        2.953146620000      39.215000000000      50.000000000000
       857    2        5.906293250000      27.280000000000      50.000000000000
       858    2        8.859439880000      28.984999990000      50.000000000000
       859    2        5.906293250000      30.690000000000      50.000000000000
       860    2        8.859439880000      32.394999990000      50.000000000000
       861    2        5.906293250000      34.099999990000      50.000000000000
       862    2        8.859439880000      35.805000000000      50.000000000000
       863    2        5.906293250000      37.509999990000      50.000000000000
       864    2        8.859439880000      39.215000000000      50.000000000000
       865    1       12.796968710000      28.984999990000      50.000000000000
       866    1       15.750115350000      27.280000000000      50.000000000000
       867    3       12.796968710000      32.394999990000      50.000000000000
       868    1       15.750115350000      30.690000000000      50.000000000000
       869    1       12.796968710000      35.805000000000      50.000000000000
       870    3       15.750115350000      34.099999990000      50.000000000000
       871    1       12.796968710000      39.215000000000      50.000000000000
       872    1       15.750115350000      37.509999990000      50.000000000000
       873    1       18.703261970000      28.984999990000      50.000000000000
       874    1       21.656408600000      27.280000000000      50.000000000000
       875    1       18.703261970000      32.394999990000      50.000000000000
       876    1       21.656408600000      30.690000000000      50.000000000000
       877    1       18.703261970000      35.805000000000      50.000000000000
       878    3       21.656408600000      34.099999990000      50.000000000000
       879    1       18.703261970000      39.215000000000      50.000000000000
       880    1       21.656408600000      37.509999990000      50.000000000000
       881    2       11.812586510000      27.280000000000      50.000000000000
       882    2       14.765733130000      28.984999990000      50.000000000000
       883    2       11.812586510000      30.690000000000      50.000000000000
       884    2       14.765733130000      32.394999990000      50.000000000000
       885    2       11.812586510000      34.099999990000      50.000000000000
       886    2       14.765733130000      35.805000000000      50.000000000000
       887    2       11.812586510000      37.509999990000      50.000000000000
       888    2       14.765733130000      39.215000000000      50.000000000000
       889    2       17.718879760000      27.280000000000      50.000000000000
       890    2       20.672026390000      28.984999990000      50.000000000000
       891    2       17.718879760000      30.690000000000      50.000000000000
       892    2       20.672026390000      32.394999990000      50.000000000000
       893    2       17.718879760000      34.099999990000      50.000000000000
       894    2       20.672026390000      35.805000000000      50.000000000000
       895    2       17.718879760000      37.509999990000      50.000000000000
       896    2       20.672026390000      39.215000000000      50.000000000000
       897    1       24.609555220000      28.984999990000      50.000000000000
       898    1       27.562701850000      27.280000000000      50.000000000000
       899    1       24.609555220000      32.394999990000      50.000000000000
       900    1       27.562701850000      30.690000000000      50.000000000000
       901    1       24.609555220000      35.805000000000      50.000000000000
       902    3       27.562701850000      34.099999990000      50.000000000000
       903    1       24.609555220000      39.215000000000      50.000000000000
       904    1       27.562701850000      37.509999990000      50.000000000000
       905    1       30.515848480000      28.984999990000      50.000000000000
       906    1       33.468995110000      27.280000000000      50.000000000000
       907    1       30.515848480000      32.394999990000      50.000000000000
       908    1       33.468995110000      30.690000000000      50.000000000000
       909    1       30.515848480000      35.805000000000      50.000000000000
       910    1       33.468995110000      34.099999990000      50.000000000000
       911    1       30.515848480000      39.215000000000      50.000000000000
       912    1       33.468995110000      37.509999990000      50.000000000000
       913    2       23.625173020000      27.280000000000      50.000000000000
       914    2       26.578319640000      28.984999990000      50.000000000000
       915    2       23.625173020000      30.690000000000      50.000000000000
       916    2       26.578319640000      32.394999990000      50.000000000000
       917    2       23.625173020000      34.099999990000      50.000000000000
       918    2       26.578319640000      35.805000000000      50.000000000000
       919    2       23.625173020000      37.509999990000      50.000000000000
       920    2       26.578319640000      39.215000000000      50.000000000000
       921    2       29.531466270000      27.280000000000      50.000000000000
       922    2       32.484612890000      28.984999990000      50.000000000000
       923    2       29.531466270000      30.690000000000      50.000000000000
       924    2       32.484612890000      32.394999990000      50.000000000000
       925    2       29.531466270000      34.099999990000      50.000000000000
       926    2       32.484612890000      35.805000000000      50.000000000000
       927    2       29.531466270000      37.509999990000      50.000000000000
       928    2       32.484612890000      39.215000000000      50.000000000000
       929    1       36.422141730000      28.984999990000      50.000000000000
       930    1       39.375288360000      27.280000000000      50.000000000000
       931    1       36.422141730000      32.394999990000      50.000000000000
       932    1       39.375288360000      30.690000000000      50.000000000000
       933    1       36.422141730000      35.805000000000      50.000000000000
       934    1       39.375288360000      34.099999990000      50.000000000000
       935    1       36.422141730000      39.215000000000      50.000000000000
       936    1       39.375288360000      37.509999990000      50.000000000000
       937    1       42.328434990000      28.984999990000      50.000000000000
       938    1       45.281581620000      27.280000000000      50.000000000000
       939    1       42.328434990000      32.394999990000      50.000000000000
       940    1       45.281581620000      30.690000000000      50.000000000000
       941    1       42.328434990000      35.805000000000      50.000000000000
       942    1       45.281581620000      34.099999990000      50.000000000000
       943    3       42.328434990000      39.215000000000      50.000000000000
       944    1       45.281581620000      37.509999990000      50.000000000000
       945    2       35.437759530000      27.280000000000      50.000000000000
       946    2       38.390906150000      28.984999990000      50.000000000000
       947    2       35.437759530000      30.690000000000      50.000000000000
       948    2       38.390906150000      32.394999990000      50.000000000000
       949    2       35.437759530000      34.099999990000      50.000000000000
       950    2       38.390906150000      35.805000000000      50.000000000000
       951    2       35.437759530000      37.509999990000      50.000000000000
       952    2       38.390906150000      39.215000000000      50.000000000000
       953    2       41.344052780000      27.280000000000      50.000000000000
       954    2       44.297199400000      28.984999990000      50.000000000000
       955    2       41.344052780000      30.690000000000      50.000000000000
       956    2       44.297199400000      32.394999990000      50.000000000000
       957    2       41.344052780000      34.099999990000      50.000000000000
       958    2       44.297199400000      35.805000000000      50.000000000000
       959    2       41.344052780000      37.509999990000      50.000000000000
       960    2       44.297199400000      39.215000000000      50.000000000000
       961    1       48.234728240000      28.984999990000      50.000000000000
       962    1       51.187874870000      27.280000000000      50.000000000000
       963    1       48.234728240000      32.394999990000      50.000000000000
       964    3       51.187874870000      30.690000000000      50.000000000000
       965    1       48.234728240000      35.805000000000      50.000000000000
       966    1       51.187874870000      34.099999990000      50.000000000000
       967    1       48.234728240000      39.215000000000      50.000000000000
       968    1       51.187874870000      37.509999990000      50.000000000000
       969    1       54.141021490000      28.984999990000      50.000000000000
       970    1       57.094168130000      27.280000000000      50.000000000000
       971    1       54.141021490000      32.394999990000      50.000000000000
       972    1       57.094168130000      30.690000000000      50.000000000000
       973    1       54.141021490000      35.805000000000      50.000000000000
       974    1       57.094168130000      34.099999990000      50.000000000000
       975    1       54.141021490000      39.215000000000      50.000000000000
       976    1       57.094168130000      37.509999990000      50.000000000000
       977    2       47.250346040000      27.280000000000      50.000000000000
       978    2       50.203492660000      28.984999990000      50.000000000000
       979    2       47.250346040000      30.690000000000      50.000000000000
       980    2       50.203492660000      32.394999990000      50.000000000000
       981    2       47.250346040000      34.099999990000      50.000000000000
       982    2       50.203492660000      35.805000000000      50.000000000000
       983    2       47.250346040000      37.509999990000      50.000000000000
       984    2       50.203492660000      39.215000000000      50.000000000000
       985    2       53.156639290000      27.280000000000      50.000000000000
       986    2       56.109785910000      28.984999990000      50.000000000000
       987    2       53.156639290000      30.690000000000      50.000000000000
       988    2       56.109785910000      32.394999990000      50.000000000000
       989    2       53.156639290000      34.099999990000      50.000000000000
       990    2       56.109785910000      35.805000000000      50.000000000000
       991    2       53.156639290000      37.509999990000      50.000000000000
       992    2       56.109785910000      39.215000000000      50.000000000000
       993    1       60.047314750000      28.984999990000      50.000000000000
       994    1       63.000461380000      27.280000000000      50.000000000000
       995    3       60.047314750000      32.394999990000      50.000000000000
       996    1       63.000461380000      30.690000000000      50.000000000000
       997    1       60.047314750000      35.805000000000      50.000000000000
       998    1       63.000461380000      34.099999990000      50.000000000000
       999    1       60.047314750000      39.215000000000      50.000000000000
      1000    1       63.000461380000      37.509999990000      50.000000000000
      1001    1       65.953608000000      28.984999990000      50.000000000000
      1002    1       68.906754640000      27.280000000000      50.000000000000
      1003    1       65.953608000000      32.394999990000      50.000000000000
      1004    1       68.906754640000      30.690000000000      50.000000000000
      1005    1       65.953608000000      35.805000000000      50.000000000000
      1006    1       68.906754640000      34.099999990000      50.000000000000
      1007    1       65.953608000000      39.215000000000      50.000000000000
      1008    1       68.906754640000      37.509999990000      50.000000000000
      1009    2       59.062932550000      27.280000000000      50.000000000000
      1010    2       62.016079170000      28.984999990000      50.000000000000
      1011    2       59.062932550000      30.690000000000      50.000000000000
      1012    2       62.016079170000      32.394999990000      50.000000000000
      1013    2       59.062932550000      34.099999990000      50.000000000000
      1014    2       62.016079170000      35.805000000000      50.000000000000
      1015    2       59.062932550000      37.509999990000      50.000000000000
      1016    2       62.016079170000      39.215000000000      50.000000000000
      1017    2       64.969225800000      27.280000000000      50.000000000000
      1018    2       67.922372420000      28.984999990000      50.000000000000
      1019    2       64.969225800000      30.690000000000      50.000000000000
      1020    2       67.922372420000      32.394999990000      50.000000000000
      1021    2       64.969225800000      34.099999990000      50.000000000000
      1022    2       67.922372420000      35.805000000000      50.000000000000
      1023    2       64.969225800000      37.509999990000      50.000000000000
      1024    2       67.922372420000      39.215000000000      50.000000000000
      1025    1       71.859901260000      28.984999990000      50.000000000000
      1026    1       74.813047890000      27.280000000000      50.000000000000
      1027    1       71.859901260000      32.394999990000      50.000000000000
      1028    1       74.813047890000      30.690000000000      50.000000000000
      1029    1       71.859901260000      35.805000000000      50.000000000000
      1030    1       74.813047890000      34.099999990000      50.000000000000
      1031    1       71.859901260000      39.215000000000      50.000000000000
      1032    1       74.813047890000      37.509999990000      50.000000000000
      1033    1       77.766194510000      28.984999990000      50.000000000000
      1034    1       80.719341150000      27.280000000000      50.000000000000
      1035    1       77.766194510000      32.394999990000      50.000000000000
      1036    1       80.719341150000      30.690000000000      50.000000000000
      1037    1       77.766194510000      35.805000000000      50.000000000000
      1038    1       80.719341150000      34.099999990000      50.000000000000
      1039    1       77.766194510000      39.215000000000      50.000000000000
      1040    1       80.719341150000      37.509999990000      50.000000000000
      1041    2       70.875519050000      27.280000000000      50.000000000000
      1042    2       73.828665680000      28.984999990000      50.000000000000
      1043    2       70.875519050000      30.690000000000      50.000000000000
      1044    2       73.828665680000      32.394999990000      50.000000000000
      1045    2       70.875519050000      34.099999990000      50.000000000000
      1046    2       73.828665680000      35.805000000000      50.000000000000
      1047    2       70.875519050000      37.509999990000      50.000000000000
      1048    2       73.828665680000      39.215000000000      50.000000000000
      1049    2       76.781812310000      27.280000000000      50.000000000000
      1050    2       79.734958930000      28.984999990000      50.000000000000
      1051    2       76.781812310000      30.690000000000      50.000000000000
      1052    2       79.734958930000      32.394999990000      50.000000000000
      1053    2       76.781812310000      34.099999990000      50.000000000000
      1054    2       79.734958930000      35.805000000000      50.000000000000
      1055    2       76.781812310000      37.509999990000      50.000000000000
      1056    2       79.734958930000      39.215000000000      50.000000000000
      1057    1       83.672487770000      28.984999990000      50.000000000000
      1058    1       86.625634400000      27.280000000000      50.000000000000
      1059    3       83.672487770000      32.394999990000      50.000000000000
      1060    1       86.625634400000      30.690000000000      50.000000000000
      1061    1       83.672487770000      35.805000000000      50.000000000000
      1062    1       86.625634400000      34.099999990000      50.000000000000
      1063    1       83.672487770000      39.215000000000      50.000000000000
      1064    1       86.625634400000      37.509999990000      50.000000000000
      1065    1       89.578781020000      28.984999990000      50.000000000000
      1066    1       92.531927650000      27.280000000000      50.000000000000
      1067    1       89.578781020000      32.394999990000      50.000000000000
      1068    1       92.531927650000      30.690000000000      50.000000000000
      1069    1       89.578781020000      35.805000000000      50.000000000000
      1070    1       92.531927650000      34.099999990000      50.000000000000
      1071    1       89.578781020000      39.215000000000      50.000000000000
      1072    1       92.531927650000      37.509999990000      50.000000000000
      1073    2       82.688105560000      27.280000000000      50.000000000000
      1074    2       85.641252190000      28.984999990000      50.000000000000
      1075    2       82.688105560000      30.690000000000      50.000000000000
      1076    2       85.641252190000      32.394999990000      50.000000000000
      1077    2       82.688105560000      34.099999990000      50.000000000000
      1078    2       85.641252190000      35.805000000000      50.000000000000
      1079    2       82.688105560000      37.509999990000      50.000000000000
      1080    2       85.641252190000      39.215000000000      50.000000000000
      1081    2       88.594398820000      27.280000000000      50.000000000000
      1082    2       91.547545440000      28.984999990000      50.000000000000
      1083    2       88.594398820000      30.690000000000      50.000000000000
      1084    2       91.547545440000      32.394999990000      50.000000000000
      1085    2       88.594398820000      34.099999990000      50.000000000000
      1086    2       91.547545440000      35.805000000000      50.000000000000
      1087    2       88.594398820000      37.509999990000      50.000000000000
      1088    2       91.547545440000      39.215000000000      50.000000000000
      1089    1       95.485074280000      28.984999990000      50.000000000000
      1090    1       98.438220910000      27.280000000000      50.000000000000
      1091    1       95.485074280000      32.394999990000      50.000000000000
      1092    3       98.438220910000      30.690000000000      50.000000000000
      1093    1       95.485074280000      35.805000000000      50.000000000000
      1094    1       98.438220910000      34.099999990000      50.000000000000
      1095    1       95.485074280000      39.215000000000      50.000000000000
      1096    1       98.438220910000      37.509999990000      50.000000000000
      1097    3      101.391367530000      28.984999990000      50.000000000000
      1098    1      104.344514160000      27.280000000000      50.000000000000
      1099    1      101.391367530000      32.394999990000      50.000000000000
      1100    1      104.344514160000      30.690000000000      50.000000000000
      1101    1      101.391367530000      35.805000000000      50.000000000000
      1102    1      104.344514160000      34.099999990000      50.000000000000
      1103    1      101.391367530000      39.215000000000      50.000000000000
      1104    1      104.344514160000      37.509999990000      50.000000000000
      1105    2       94.500692070000      27.280000000000      50.000000000000
      1106    2       97.453838690000      28.984999990000      50.000000000000
      1107    2       94.500692070000      30.690000000000      50.000000000000
      1108    2       97.453838690000      32.394999990000      50.000000000000
      1109    2       94.500692070000      34.099999990000      50.000000000000
      1110    2       97.453838690000      35.805000000000      50.000000000000
      1111    2       94.500692070000      37.509999990000      50.000000000000
      1112    2       97.453838690000      39.215000000000      50.000000000000
      1113    2      100.406985330000      27.280000000000      50.000000000000
      1114    2      103.360131950000      28.984999990000      50.000000000000
      1115    2      100.406985330000      30.690000000000      50.000000000000
      1116    2      103.360131950000      32.394999990000      50.000000000000
      1117    2      100.406985330000      34.099999990000      50.000000000000
      1118    2      103.360131950000      35.805000000000      50.000000000000
      1119    2      100.406985330000      37.509999990000      50.000000000000
      1120    2      103.360131950000      39.215000000000      50.000000000000
      1121    1      107.297660790000      28.984999990000      50.000000000000
      1122    1      110.250807420000      27.280000000000      50.000000000000
      1123    1      107.297660790000      32.394999990000      50.000000000000
      1124    1      110.250807420000      30.690000000000      50.000000000000
      1125    1      107.297660790000      35.805000000000      50.000000000000
      1126    1      110.250807420000      34.099999990000      50.000000000000
      1127    1      107.297660790000      39.215000000000      50.000000000000
      1128    1      110.250807420000      37.509999990000      50.000000000000
      1129    1      113.203954040000      28.984999990000      50.000000000000
      1130    3      116.157100670000      27.280000000000      50.000000000000
      1131    1      113.203954040000      32.394999990000      50.000000000000
      1132    1      116.157100670000      30.690000000000      50.000000000000
      1133    1      113.203954040000      35.805000000000      50.000000000000
      1134    1      116.157100670000      34.099999990000      50.000000000000
      1135    1      113.203954040000      39.215000000000      50.000000000000
      1136    1      116.157100670000      37.509999990000      50.000000000000
      1137    2      106.313278580000      27.280000000000      50.000000000000
      1138    2      109.266425200000      28.984999990000      50.000000000000
      1139    2      106.313278580000      30.690000000000      50.000000000000
      1140    2      109.266425200000      32.394999990000      50.000000000000
      1141    2      106.313278580000      34.099999990000      50.000000000000
      1142    2      109.266425200000      35.805000000000      50.000000000000
      1143    2      106.313278580000      37.509999990000      50.000000000000
      1144    2      109.266425200000      39.215000000000      50.000000000000
      1145    2      112.219571840000      27.280000000000      50.000000000000
      1146    2      115.172718460000      28.984999990000      50.000000000000
      1147    2      112.219571840000      30.690000000000      50.000000000000
      1148    2      115.172718460000      32.394999990000      50.000000000000
      1149    2      112.219571840000      34.099999990000      50.000000000000
      1150    2      115.172718460000      35.805000000000      50.000000000000
      1151    2      112.219571840000      37.509999990000      50.000000000000
      1152    2      115.172718460000      39.215000000000      50.000000000000
      1153    3      119.110247290000      28.984999990000      50.000000000000
      1154    1      122.063393930000      27.280000000000      50.000000000000
      1155    1      119.110247290000      32.394999990000      50.000000000000
      1156    1      122.063393930000      30.690000000000      50.000000000000
      1157    1      119.110247290000      35.805000000000      50.000000000000
      1158    1      122.063393930000      34.099999990000      50.000000000000
      1159    1      119.110247290000      39.215000000000      50.000000000000
      1160    1      122.063393930000      37.509999990000      50.000000000000
      1161    1      125.016540550000      28.984999990000      50.000000000000
      1162    1      127.969687180000      27.280000000000      50.000000000000
      1163    1      125.016540550000      32.394999990000      50.000000000000
      1164    1      127.969687180000      30.690000000000      50.000000000000
      1165    1      125.016540550000      35.805000000000      50.000000000000
      1166    1      127.969687180000      34.099999990000      50.000000000000
      1167    1      125.016540550000      39.215000000000      50.000000000000
      1168    1      127.969687180000      37.509999990000      50.000000000000
      1169    2      118.125865090000      27.280000000000      50.000000000000
      1170    2      121.079011710000      28.984999990000      50.000000000000
      1171    2      118.125865090000      30.690000000000      50.000000000000
      1172    2      121.079011710000      32.394999990000      50.000000000000
      1173    2      118.125865090000      34.099999990000      50.000000000000
      1174    2      121.079011710000      35.805000000000      50.000000000000
      1175    2      118.125865090000      37.509999990000      50.000000000000
      1176    2      121.079011710000      39.215000000000      50.000000000000
      1177    2      124.032158350000      27.280000000000      50.000000000000
      1178    2      126.985304970000      28.984999990000      50.000000000000
      1179    2      124.032158350000      30.690000000000      50.000000000000
      1180    2      126.985304970000      32.394999990000      50.000000000000
      1181    2      124.032158350000      34.099999990000      50.000000000000
      1182    2      126.985304970000      35.805000000000      50.000000000000
      1183    2      124.032158350000      37.509999990000      50.000000000000
      1184    2      126.985304970000      39.215000000000      50.000000000000
      1185    1      130.922833800000      28.984999990000      50.000000000000
      1186    1      133.875980440000      27.280000000000      50.000000000000
      1187    1      130.922833800000      32.394999990000      50.000000000000
      1188    1      133.875980440000      30.690000000000      50.000000000000
      1189    1      130.922833800000      35.805000000000      50.000000000000
      1190    1      133.875980440000      34.099999990000      50.000000000000
      1191    1      130.922833800000      39.215000000000      50.000000000000
      1192    1      133.875980440000      37.509999990000      50.000000000000
      1193    1      136.829127060000      28.984999990000      50.000000000000
      1194    1      139.782273690000      27.280000000000      50.000000000000
      1195    1      136.829127060000      32.394999990000      50.000000000000
      1196    1      139.782273690000      30.690000000000      50.000000000000
      1197    1      136.829127060000      35.805000000000      50.000000000000
      1198    1      139.782273690000      34.099999990000      50.000000000000
      1199    1      136.829127060000      39.215000000000      50.000000000000
      1200    1      139.782273690000      37.509999990000      50.000000000000
      1201    2      129.938451600000      27.280000000000      50.000000000000
      1202    2      132.891598220000      28.984999990000      50.000000000000
      1203    2      129.938451600000      30.690000000000      50.000000000000
      1204    2      132.891598220000      32.394999990000      50.000000000000
      1205    2      129.938451600000      34.099999990000      50.000000000000
      1206    2      132.891598220000      35.805000000000      50.000000000000
      1207    2      129.938451600000      37.509999990000      50.000000000000
      1208    2      132.891598220000      39.215000000000      50.000000000000
      1209    2      135.844744850000      27.280000000000      50.000000000000
      1210    2      138.797891480000      28.984999990000      50.000000000000
      1211    2      135.844744850000      30.690000000000      50.000000000000
      1212    2      138.797891480000      32.394999990000      50.000000000000
      1213    2      135.844744850000      34.099999990000      50.000000000000
      1214    2      138.797891480000      35.805000000000      50.000000000000
      1215    2      135.844744850000      37.509999990000      50.000000000000
      1216    2      138.797891480000      39.215000000000      50.000000000000
      1217    1      142.735420310000      28.984999990000      50.000000000000
      1218    1      145.688566950000      27.280000000000      50.000000000000
      1219    1      142.735420310000      32.394999990000      50.000000000000
      1220    1      145.688566950000      30.690000000000      50.000000000000
      1221    1      142.735420310000      35.805000000000      50.000000000000
      1222    1      145.688566950000      34.099999990000      50.000000000000
      1223    1      142.735420310000      39.215000000000      50.000000000000
      1224    1      145.688566950000      37.509999990000      50.000000000000
      1225    1      148.641713570000      28.984999990000      50.000000000000
      1226    1      151.594860200000      27.280000000000      50.000000000000
      1227    1      148.641713570000      32.394999990000      50.000000000000
      1228    1      151.594860200000      30.690000000000      50.000000000000
      1229    1      148.641713570000      35.805000000000      50.000000000000
      1230    3      151.594860200000      34.099999990000      50.000000000000
      1231    1      148.641713570000      39.215000000000      50.000000000000
      1232    1      151.594860200000      37.509999990000      50.000000000000
      1233    2      141.751038110000      27.280000000000      50.000000000000
      1234    2      144.704184730000      28.984999990000      50.000000000000
      1235    2      141.751038110000      30.690000000000      50.000000000000
      1236    2      144.704184730000      32.394999990000      50.000000000000
      1237    2      141.751038110000      34.099999990000      50.000000000000
      1238    2      144.704184730000      35.805000000000      50.000000000000
      1239    2      141.751038110000      37.509999990000      50.000000000000
      1240    2      144.704184730000      39.215000000000      50.000000000000
      1241    2      147.657331360000      27.280000000000      50.000000000000
      1242    2      150.610477990000      28.984999990000      50.000000000000
      1243    2      147.657331360000      30.690000000000      50.000000000000
      1244    2      150.610477990000      32.394999990000      50.000000000000
      1245    2      147.657331360000      34.099999990000      50.000000000000
      1246    2      150.610477990000      35.805000000000      50.000000000000
      1247    2      147.657331360000      37.509999990000      50.000000000000
      1248    2      150.610477990000      39.215000000000      50.000000000000
      1249    1        0.984382200000      42.624999990000      50.000000000000
      1250    1        3.937528840000      40.919999990000      50.000000000000
      1251    3        0.984382200000      46.034999990000      50.000000000000
      1252    1        3.937528840000      44.330000000000      50.000000000000
      1253    1        0.984382200000      49.445000000000      50.000000000000
      1254    1        3.937528840000      47.739999990000      50.000000000000
      1255    1        0.984382200000      52.855000000000      50.000000000000
      1256    1        3.937528840000      51.149999990000      50.000000000000
      1257    1        6.890675460000      42.624999990000      50.000000000000
      1258    1        9.843822090000      40.919999990000      50.000000000000
      1259    1        6.890675460000      46.034999990000      50.000000000000
      1260    1        9.843822090000      44.330000000000      50.000000000000
      1261    1        6.890675460000      49.445000000000      50.000000000000
      1262    1        9.843822090000      47.739999990000      50.000000000000
      1263    1        6.890675460000      52.855000000000      50.000000000000
      1264    1        9.843822090000      51.149999990000      50.000000000000
      1265    2        0.000000000000      40.919999990000      50.000000000000
      1266    2        2.953146620000      42.624999990000      50.000000000000
      1267    2        0.000000000000      44.330000000000      50.000000000000
      1268    2        2.953146620000      46.034999990000      50.000000000000
      1269    2        0.000000000000      47.739999990000      50.000000000000
      1270    2        2.953146620000      49.445000000000      50.000000000000
      1271    2        0.000000000000      51.149999990000      50.000000000000
      1272    2        2.953146620000      52.855000000000      50.000000000000
      1273    2        5.906293250000      40.919999990000      50.000000000000
      1274    2        8.859439880000      42.624999990000      50.000000000000
      1275    2        5.906293250000      44.330000000000      50.000000000000
      1276    2        8.859439880000      46.034999990000      50.000000000000
      1277    2        5.906293250000      47.739999990000      50.000000000000
      1278    2        8.859439880000      49.445000000000      50.000000000000
      1279    2        5.906293250000      51.149999990000      50.000000000000
      1280    2        8.859439880000      52.855000000000      50.000000000000
      1281    1       12.796968710000      42.624999990000      50.000000000000
      1282    1       15.750115350000      40.919999990000      50.000000000000
      1283    1       12.796968710000      46.034999990000      50.000000000000
      1284    1       15.750115350000      44.330000000000      50.000000000000
      1285    1       12.796968710000      49.445000000000      50.000000000000
      1286    1       15.750115350000      47.739999990000      50.000000000000
      1287    1       12.796968710000      52.855000000000      50.000000000000
      1288    1       15.750115350000      51.149999990000      50.000000000000
      1289    3       18.703261970000      42.624999990000      50.000000000000
      1290    1       21.656408600000      40.919999990000      50.000000000000
      1291    3       18.703261970000      46.034999990000      50.000000000000
      1292    1       21.656408600000      44.330000000000      50.000000000000
      1293    1       18.703261970000      49.445000000000      50.000000000000
      1294    1       21.656408600000      47.739999990000      50.000000000000
      1295    3       18.703261970000      52.855000000000      50.000000000000
      1296    1       21.656408600000      51.149999990000      50.000000000000
      1297    2       11.812586510000      40.919999990000      50.000000000000
      1298    2       14.765733130000      42.624999990000      50.000000000000
      1299    2       11.812586510000      44.330000000000      50.000000000000
      1300    2       14.765733130000      46.034999990000      50.000000000000
      1301    2       11.812586510000      47.739999990000      50.000000000000
      1302    2       14.765733130000      49.445000000000      50.000000000000
      1303    2       11.812586510000      51.149999990000      50.000000000000
      1304    2       14.765733130000      52.855000000000      50.000000000000
      1305    2       17.718879760000      40.919999990000      50.000000000000
      1306    2       20.672026390000      42.624999990000      50.000000000000
      1307    2       17.718879760000      44.330000000000      50.000000000000
      1308    2       20.672026390000      46.034999990000      50.000000000000
      1309    2       17.718879760000      47.739999990000      50.000000000000
      1310    2       20.672026390000      49.445000000000      50.000000000000
      1311    2       17.718879760000      51.149999990000      50.000000000000
      1312    2       20.672026390000      52.855000000000      50.000000000000
      1313    3       24.609555220000      42.624999990000      50.000000000000
      1314    1       27.562701850000      40.919999990000      50.000000000000
      1315    1       24.609555220000      46.034999990000      50.000000000000
      1316    1       27.562701850000      44.330000000000      50.000000000000
      1317    1       24.609555220000      49.445000000000      50.000000000000
      1318    1       27.562701850000      47.739999990000      50.000000000000
      1319    1       24.609555220000      52.855000000000      50.000000000000
      1320    1       27.562701850000      51.149999990000      50.000000000000
      1321    1       30.515848480000      42.624999990000      50.000000000000
      1322    1       33.468995110000      40.919999990000      50.000000000000
      1323    1       30.515848480000      46.034999990000      50.000000000000
      1324    1       33.468995110000      44.330000000000      50.000000000000
      1325    1       30.515848480000      49.445000000000      50.000000000000
      1326    1       33.468995110000      47.739999990000      50.000000000000
      1327    1       30.515848480000      52.855000000000      50.000000000000
      1328    1       33.468995110000      51.149999990000      50.000000000000
      1329    2       23.625173020000      40.919999990000      50.000000000000
      1330    2       26.578319640000      42.624999990000      50.000000000000
      1331    2       23.625173020000      44.330000000000      50.000000000000
      1332    2       26.578319640000      46.034999990000      50.000000000000
      1333    2       23.625173020000      47.739999990000      50.000000000000
      1334    2       26.578319640000      49.445000000000      50.000000000000
      1335    2       23.625173020000      51.149999990000      50.000000000000
      1336    2       26.578319640000      52.855000000000      50.000000000000
      1337    2       29.531466270000      40.919999990000      50.000000000000
      1338    2       32.484612890000      42.624999990000      50.000000000000
      1339    2       29.531466270000      44.330000000000      50.000000000000
      1340    2       32.484612890000      46.034999990000      50.000000000000
      1341    2       29.531466270000      47.739999990000      50.000000000000
      1342    2       32.484612890000      49.445000000000      50.000000000000
      1343    2       29.531466270000      51.149999990000      50.000000000000
      1344    2       32.484612890000      52.855000000000      50.000000000000
      1345    1       36.422141730000      42.624999990000      50.000000000000
      1346    1       39.375288360000      40.919999990000      50.000000000000
      1347    1       36.422141730000      46.034999990000      50.000000000000
      1348    1       39.375288360000      44.330000000000      50.000000000000
      1349    1       36.422141730000      49.445000000000      50.000000000000
      1350    3       39.375288360000      47.739999990000      50.000000000000
      1351    1       36.422141730000      52.855000000000      50.000000000000
      1352    3       39.375288360000      51.149999990000      50.000000000000
      1353    1       42.328434990000      42.624999990000      50.000000000000
      1354    1       45.281581620000      40.919999990000      50.000000000000
      1355    1       42.328434990000      46.034999990000      50.000000000000
      1356    1       45.281581620000      44.330000000000      50.000000000000
      1357    1       42.328434990000      49.445000000000      50.000000000000
      1358    1       45.281581620000      47.739999990000      50.000000000000
      1359    1       42.328434990000      52.855000000000      50.000000000000
      1360    1       45.281581620000      51.149999990000      50.000000000000
      1361    2       35.437759530000      40.919999990000      50.000000000000
      1362    2       38.390906150000      42.624999990000      50.000000000000
      1363    2       35.437759530000      44.330000000000      50.000000000000
      1364    2       38.390906150000      46.034999990000      50.000000000000
      1365    2       35.437759530000      47.739999990000      50.000000000000
      1366    2       38.390906150000      49.445000000000      50.000000000000
      1367    2       35.437759530000      51.149999990000      50.000000000000
      1368    2       38.390906150000      52.855000000000      50.000000000000
      1369    2       41.344052780000      40.919999990000      50.000000000000
      1370    2       44.297199400000      42.624999990000      50.000000000000
      1371    2       41.344052780000      44.330000000000      50.000000000000
      1372    2       44.297199400000      46.034999990000      50.000000000000
      1373    2       41.344052780000      47.739999990000      50.000000000000
      1374    2       44.297199400000      49.445000000000      50.000000000000
      1375    2       41.344052780000      51.149999990000      50.000000000000
      1376    2       44.297199400000      52.855000000000      50.000000000000
      1377    1       48.234728240000      42.624999990000      50.000000000000
      1378    1       51.187874870000      40.919999990000      50.000000000000
      1379    1       48.234728240000      46.034999990000      50.000000000000
      1380    1       51.187874870000      44.330000000000      50.000000000000
      1381    1       48.234728240000      49.445000000000      50.000000000000
      1382    1       51.187874870000      47.739999990000      50.000000000000
      1383    1       48.234728240000      52.855000000000      50.000000000000
      1384    1       51.187874870000      51.149999990000      50.000000000000
      1385    3       54.141021490000      42.624999990000      50.000000000000
      1386    1       57.094168130000      40.919999990000      50.000000000000
      1387    1       54.141021490000      46.034999990000      50.000000000000
      1388    3       57.094168130000      44.330000000000      50.000000000000
      1389    3       54.141021490000      49.445000000000      50.000000000000
      1390    1       57.094168130000      47.739999990000      50.000000000000
      1391    1       54.141021490000      52.855000000000      50.000000000000
      1392    1       57.094168130000      51.149999990000      50.000000000000
      1393    2       47.250346040000      40.919999990000      50.000000000000
      1394    2       50.203492660000      42.624999990000      50.000000000000
      1395    2       47.250346040000      44.330000000000      50.000000000000
      1396    2       50.203492660000      46.034999990000      50.000000000000
      1397    2       47.250346040000      47.739999990000      50.000000000000
      1398    2       50.203492660000      49.445000000000      50.000000000000
      1399    2       47.250346040000      51.149999990000      50.000000000000
      1400    2       50.203492660000      52.855000000000      50.000000000000
      1401    2       53.156639290000      40.919999990000      50.000000000000
      1402    2       56.109785910000      42.624999990000      50.000000000000
      1403    2       53.156639290000      44.330000000000      50.000000000000
      1404    2       56.109785910000      46.034999990000      50.000000000000
      1405    2       53.156639290000      47.739999990000      50.000000000000
      1406    2       56.109785910000      49.445000000000      50.000000000000
      1407    2       53.156639290000      51.149999990000      50.000000000000
      1408    2       56.109785910000      52.855000000000      50.000000000000
      1409    1       60.047314750000      42.624999990000      50.000000000000
      1410    1       63.000461380000      40.919999990000      50.000000000000
      1411    1       60.047314750000      46.034999990000      50.000000000000
      1412    1       63.000461380000      44.330000000000      50.000000000000
      1413    1       60.047314750000      49.445000000000      50.000000000000
      1414    3       63.000461380000      47.739999990000      50.000000000000
      1415    1       60.047314750000      52.855000000000      50.000000000000
      1416    1       63.000461380000      51.149999990000      50.000000000000
      1417    3       65.953608000000      42.624999990000      50.000000000000
      1418    1       68.906754640000      40.919999990000      50.000000000000
      1419    1       65.953608000000      46.034999990000      50.000000000000
      1420    1       68.906754640000      44.330000000000      50.000000000000
      1421    3       65.953608000000      49.445000000000      50.000000000000
      1422    1       68.906754640000      47.739999990000      50.000000000000
      1423    1       65.953608000000      52.855000000000      50.000000000000
      1424    1       68.906754640000      51.149999990000      50.000000000000
      1425    2       59.062932550000      40.919999990000      50.000000000000
      1426    2       62.016079170000      42.624999990000      50.000000000000
      1427    2       59.062932550000      44.330000000000      50.000000000000
      1428    2       62.016079170000      46.034999990000      50.000000000000
      1429    2       59.062932550000      47.739999990000      50.000000000000
      1430    2       62.016079170000      49.445000000000      50.000000000000
      1431    2       59.062932550000      51.149999990000      50.000000000000
      1432    2       62.016079170000      52.855000000000      50.000000000000
      1433    2       64.969225800000      40.919999990000      50.000000000000
      1434    2       67.922372420000      42.624999990000      50.000000000000
      1435    2       64.969225800000      44.330000000000      50.000000000000
      1436    2       67.922372420000      46.034999990000      50.000000000000
      1437    2       64.969225800000      47.739999990000      50.000000000000
      1438    2       67.922372420000      49.445000000000      50.000000000000
      1439    2       64.969225800000      51.149999990000      50.000000000000
      1440    2       67.922372420000      52.855000000000      50.000000000000
      1441    1       71.859901260000      42.624999990000      50.000000000000
      1442    1       74.813047890000      40.919999990000      50.000000000000
      1443    1       71.859901260000      46.034999990000      50.000000000000
      1444    1       74.813047890000      44.330000000000      50.000000000000
      1445    1       71.859901260000      49.445000000000      50.000000000000
      1446    1       74.813047890000      47.739999990000      50.000000000000
      1447    1       71.859901260000      52.855000000000      50.000000000000
      1448    1       74.813047890000      51.149999990000      50.000000000000
      1449    1       77.766194510000      42.624999990000      50.000000000000
      1450    1       80.719341150000      40.919999990000      50.000000000000
      1451    1       77.766194510000      46.034999990000      50.000000000000
      1452    1       80.719341150000      44.330000000000      50.000000000000
      1453    1       77.766194510000      49.445000000000      50.000000000000
      1454    1       80.719341150000      47.739999990000      50.000000000000
      1455    1       77.766194510000      52.855000000000      50.000000000000
      1456    3       80.719341150000      51.149999990000      50.000000000000
      1457    2       70.875519050000      40.919999990000      50.000000000000
      1458    2       73.828665680000      42.624999990000      50.000000000000
      1459    2       70.875519050000      44.330000000000      50.000000000000
      1460    2       73.828665680000      46.034999990000      50.000000000000
      1461    2       70.875519050000      47.739999990000      50.000000000000
      1462    2       73.828665680000      49.445000000000      50.000000000000
      1463    2       70.875519050000      51.149999990000      50.000000000000
      1464    2       73.828665680000      52.855000000000      50.000000000000
      1465    2       76.781812310000      40.919999990000      50.000000000000
      1466    2       79.734958930000      42.624999990000      50.000000000000
      1467    2       76.781812310000      44.330000000000      50.000000000000
      1468    2       79.734958930000      46.034999990000      50.000000000000
      1469    2       76.781812310000      47.739999990000      50.000000000000
      1470    2       79.734958930000      49.445000000000      50.000000000000
      1471    2       76.781812310000      51.149999990000      50.000000000000
      1472    2       79.734958930000      52.855000000000      50.000000000000
      1473    3       83.672487770000      42.624999990000      50.000000000000
      1474    1       86.625634400000      40.919999990000      50.000000000000
      1475    1       83.672487770000      46.034999990000      50.000000000000
      1476    1       86.625634400000      44.330000000000      50.000000000000
      1477    1       83.672487770000      49.445000000000      50.000000000000
      1478    1       86.625634400000      47.739999990000      50.000000000000
      1479    1       83.672487770000      52.855000000000      50.000000000000
      1480    1       86.625634400000      51.149999990000      50.000000000000
      1481    1       89.578781020000      42.624999990000      50.000000000000
      1482    1       92.531927650000      40.919999990000      50.000000000000
      1483    1       89.578781020000      46.034999990000      50.000000000000
      1484    1       92.531927650000      44.330000000000      50.000000000000
      1485    1       89.578781020000      49.445000000000      50.000000000000
      1486    1       92.531927650000      47.739999990000      50.000000000000
      1487    1       89.578781020000      52.855000000000      50.000000000000
      1488    1       92.531927650000      51.149999990000      50.000000000000
      1489    2       82.688105560000      40.919999990000      50.000000000000
      1490    2       85.641252190000      42.624999990000      50.000000000000
      1491    2       82.688105560000      44.330000000000      50.000000000000
      1492    2       85.641252190000      46.034999990000      50.000000000000
      1493    2       82.688105560000      47.739999990000      50.000000000000
      1494    2       85.641252190000      49.445000000000      50.000000000000
      1495    2       82.688105560000      51.149999990000      50.000000000000
      1496    2       85.641252190000      52.855000000000      50.000000000000
      1497    2       88.594398820000      40.919999990000      50.000000000000
      1498    2       91.547545440000      42.624999990000      50.000000000000
      1499    2       88.594398820000      44.330000000000      50.000000000000
      1500    2       91.547545440000      46.034999990000      50.000000000000
      1501    2       88.594398820000      47.739999990000      50.000000000000
      1502    2       91.547545440000      49.445000000000      50.000000000000
      1503    2       88.594398820000      51.149999990000      50.000000000000
      1504    2       91.547545440000      52.855000000000      50.000000000000
      1505    3       95.485074280000      42.624999990000      50.000000000000
      1506    1       98.438220910000      40.919999990000      50.000000000000
      1507    1       95.485074280000      46.034999990000      50.000000000000
      1508    1       98.438220910000      44.330000000000      50.000000000000
      1509    1       95.485074280000      49.445000000000      50.000000000000
      1510    3       98.438220910000      47.739999990000      50.000000000000
      1511    3       95.485074280000      52.855000000000      50.000000000000
      1512    1       98.438220910000      51.149999990000      50.000000000000
      1513    1      101.391367530000      42.624999990000      50.000000000000
      1514    1      104.344514160000      40.919999990000      50.000000000000
      1515    1      101.391367530000      46.034999990000      50.000000000000
      1516    1      104.344514160000      44.330000000000      50.000000000000
      1517    1      101.391367530000      49.445000000000      50.000000000000
      1518    1      104.344514160000      47.739999990000      50.000000000000
      1519    1      101.391367530000      52.855000000000      50.000000000000
      1520    1      104.344514160000      51.149999990000      50.000000000000
      1521    2       94.500692070000      40.919999990000      50.000000000000
      1522    2       97.453838690000      42.624999990000      50.000000000000
      1523    2       94.500692070000      44.330000000000      50.000000000000
      1524    2       97.453838690000      46.034999990000      50.000000000000
      1525    2       94.500692070000      47.739999990000      50.000000000000
      1526    2       97.453838690000      49.445000000000      50.000000000000
      1527    2       94.500692070000      51.149999990000      50.000000000000
      1528    2       97.453838690000      52.855000000000      50.000000000000
      1529    2      100.406985330000      40.919999990000      50.000000000000
      1530    2      103.360131950000      42.624999990000      50.000000000000
      1531    2      100.406985330000      44.330000000000      50.000000000000
      1532    2      103.360131950000      46.034999990000      50.000000000000
      1533    2      100.406985330000      47.739999990000      50.000000000000
      1534    2      103.360131950000      49.445000000000      50.000000000000
      1535    2      100.406985330000      51.149999990000      50.000000000000
      1536    2      103.360131950000      52.855000000000      50.000000000000
      1537    1      107.297660790000      42.624999990000      50.000000000000
      1538    1      110.250807420000      40.919999990000      50.000000000000
      1539    1      107.297660790000      46.034999990000      50.000000000000
      1540    1      110.250807420000      44.330000000000      50.000000000000
      1541    1      107.297660790000      49.445000000000      50.000000000000
      1542    1      110.250807420000      47.739999990000      50.000000000000
      1543    1      107.297660790000      52.855000000000      50.000000000000
      1544    1      110.250807420000      51.149999990000      50.000000000000
      1545    1      113.203954040000      42.624999990000      50.000000000000
      1546    1      116.157100670000      40.919999990000      50.000000000000
      1547    1      113.203954040000      46.034999990000      50.000000000000
      1548    1      116.157100670000      44.330000000000      50.000000000000
      1549    1      113.203954040000      49.445000000000      50.000000000000
      1550    1      116.157100670000      47.739999990000      50.000000000000
      1551    1      113.203954040000      52.855000000000      50.000000000000
      1552    1      116.157100670000      51.149999990000      50.000000000000
      1553    2      106.313278580000      40.919999990000      50.000000000000
      1554    2      109.266425200000      42.624999990000      50.000000000000
      1555    2      106.313278580000      44.330000000000      50.000000000000
      1556    2      109.266425200000      46.034999990000      50.000000000000
      1557    2      106.313278580000      47.739999990000      50.000000000000
      1558    2      109.266425200000      49.445000000000      50.000000000000
      1559    2      106.313278580000      51.149999990000      50.000000000000
      1560    2      109.266425200000      52.855000000000      50.000000000000
      1561    2      112.219571840000      40.919999990000      50.000000000000
      1562    2      115.172718460000      42.624999990000      50.000000000000
      1563    2      112.219571840000      44.330000000000      50.000000000000
      1564    2      115.172718460000      46.034999990000      50.000000000000
      1565    2      112.219571840000      47.739999990000      50.000000000000
      1566    2      115.172718460000      49.445000000000      50.000000000000
      1567    2      112.219571840000      51.149999990000      50.000000000000
      1568    2      115.172718460000      52.855000000000      50.000000000000
      1569    1      119.110247290000      42.624999990000      50.000000000000
      1570    1      122.063393930000      40.919999990000      50.000000000000
      1571    1      119.110247290000      46.034999990000      50.000000000000
      1572    1      122.063393930000      44.330000000000      50.000000000000
      1573    1      119.110247290000      49.445000000000      50.000000000000
      1574    1      122.063393930000      47.739999990000      50.000000000000
      1575    1      119.110247290000      52.855000000000      50.000000000000
      1576    1      122.063393930000      51.149999990000      50.000000000000
      1577    1      125.016540550000      42.624999990000      50.000000000000
      1578    1      127.969687180000      40.919999990000      50.000000000000
      1579    1      125.016540550000      46.034999990000      50.000000000000
      1580    1      127.969687180000      44.330000000000      50.000000000000
      1581    1      125.016540550000      49.445000000000      50.000000000000
      1582    1      127.969687180000      47.739999990000      50.000000000000
      1583    1      125.016540550000      52.855000000000      50.000000000000
      1584    3      127.969687180000      51.149999990000      50.000000000000
      1585    2      118.125865090000      40.919999990000      50.000000000000
      1586    2      121.079011710000      42.624999990000      50.000000000000
      1587    2      118.125865090000      44.330000000000      50.000000000000
      1588    2      121.079011710000      46.034999990000      50.000000000000
      1589    2      118.125865090000      47.739999990000      50.000000000000
      1590    2      121.079011710000      49.445000000000      50.000000000000
      1591    2      118.125865090000      51.149999990000      50.000000000000
      1592    2      121.079011710000      52.855000000000      50.000000000000
      1593    2      124.032158350000      40.919999990000      50.000000000000
      1594    2      126.985304970000      42.624999990000      50.000000000000
      1595    2      124.032158350000      44.330000000000      50.000000000000
      1596    2      126.985304970000      46.034999990000      50.000000000000
      1597    2      124.032158350000      47.739999990000      50.000000000000
      1598    2      126.985304970000      49.445000000000      50.000000000000
      1599    2      124.032158350000      51.149999990000      50.000000000000
      1600    2      126.985304970000      52.855000000000      50.000000000000
      1601    1      130.922833800000      42.624999990000      50.000000000000
      1602    1      133.875980440000      40.919999990000      50.000000000000
      1603    1      130.922833800000      46.034999990000      50.000000000000
      1604    1      133.875980440000      44.330000000000      50.000000000000
      1605    1      130.922833800000      49.445000000000      50.000000000000
      1606    1      133.875980440000      47.739999990000      50.000000000000
      1607    1      130.922833800000      52.855000000000      50.000000000000
      1608    1      133.875980440000      51.149999990000      50.000000000000
      1609    1      136.829127060000      42.624999990000      50.000000000000
      1610    1      139.782273690000      40.919999990000      50.000000000000
      1611    1      136.829127060000      46.034999990000      50.000000000000
      1612    1      139.782273690000      44.330000000000      50.000000000000
      1613    1      136.829127060000      49.445000000000      50.000000000000
      1614    3      139.782273690000      47.739999990000      50.000000000000
      1615    1      136.829127060000      52.855000000000      50.000000000000
      1616    1      139.782273690000      51.149999990000      50.000000000000
      1617    2      129.938451600000      40.919999990000      50.000000000000
      1618    2      132.891598220000      42.624999990000      50.000000000000
      1619    2      129.938451600000      44.330000000000      50.000000000000
      1620    2      132.891598220000      46.034999990000      50.000000000000
      1621    2      129.938451600000      47.739999990000      50.000000000000
      1622    2      132.891598220000      49.445000000000      50.000000000000
      1623    2      129.938451600000      51.149999990000      50.000000000000
      1624    2      132.891598220000      52.855000000000      50.000000000000
      1625    2      135.844744850000      40.919999990000      50.000000000000
      1626    2      138.797891480000      42.624999990000      50.000000000000
      1627    2      135.844744850000      44.330000000000      50.000000000000
      1628    2      138.797891480000      46.034999990000      50.000000000000
      1629    2      135.844744850000      47.739999990000      50.000000000000
      1630    2      138.797891480000      49.445000000000      50.000000000000
      1631    2      135.844744850000      51.149999990000      50.000000000000
      1632    2      138.797891480000      52.855000000000      50.000000000000
      1633    1      142.735420310000      42.624999990000      50.000000000000
      1634    1      145.688566950000      40.919999990000      50.000000000000
      1635    1      142.735420310000      46.034999990000      50.000000000000
      1636    1      145.688566950000      44.330000000000      50.000000000000
      1637    1      142.735420310000      49.445000000000      50.000000000000
      1638    1      145.688566950000      47.739999990000      50.000000000000
      1639    1      142.735420310000      52.855000000000      50.000000000000
      1640    1      145.688566950000      51.149999990000      50.000000000000
      1641    1      148.641713570000      42.624999990000      50.000000000000
      1642    1      151.594860200000      40.919999990000      50.000000000000
      1643    1      148.641713570000      46.034999990000      50.000000000000
      1644    1      151.594860200000      44.330000000000      50.000000000000
      1645    1      148.641713570000      49.445000000000      50.000000000000
      1646    3      151.594860200000      47.739999990000      50.000000000000
      1647    1      148.641713570000      52.855000000000      50.000000000000
      1648    1      151.594860200000      51.149999990000      50.000000000000
      1649    2      141.751038110000      40.919999990000      50.000000000000
      1650    2      144.704184730000      42.624999990000      50.000000000000
      1651    2      141.751038110000      44.330000000000      50.000000000000
      1652    2      144.704184730000      46.034999990000      50.000000000000
      1653    2      141.751038110000      47.739999990000      50.000000000000
      1654    2      144.704184730000      49.445000000000      50.000000000000
      1655    2      141.751038110000      51.149999990000      50.000000000000
      1656    2      144.704184730000      52.855000000000      50.000000000000
      1657    2      147.657331360000      40.919999990000      50.000000000000
      1658    2      150.610477990000      42.624999990000      50.000000000000
      1659    2      147.657331360000      44.330000000000      50.000000000000
      1660    2      150.610477990000      46.034999990000      50.000000000000
      1661    2      147.657331360000      47.739999990000      50.000000000000
      1662    2      150.610477990000      49.445000000000      50.000000000000
      1663    2      147.657331360000      51.149999990000      50.000000000000
      1664    2      150.610477990000      52.855000000000      50.000000000000
      1665    1        0.984382200000      56.264999990000      50.000000000000
      1666    3        3.937528840000      54.559999990000      50.000000000000
      1667    1        0.984382200000      59.674999990000      50.000000000000
      1668    1        3.937528840000      57.970000000000      50.000000000000
      1669    1        0.984382200000      63.084999990000      50.000000000000
      1670    1        3.937528840000      61.379999990000      50.000000000000
      1671    1        0.984382200000      66.495000000000      50.000000000000
      1672    1        3.937528840000      64.789999990000      50.000000000000
      1673    1        6.890675460000      56.264999990000      50.000000000000
      1674    1        9.843822090000      54.559999990000      50.000000000000
      1675    1        6.890675460000      59.674999990000      50.000000000000
      1676    1        9.843822090000      57.970000000000      50.000000000000
      1677    1        6.890675460000      63.084999990000      50.000000000000
      1678    1        9.843822090000      61.379999990000      50.000000000000
      1679    3        6.890675460000      66.495000000000      50.000000000000
      1680    1        9.843822090000      64.789999990000      50.000000000000
      1681    2        0.000000000000      54.559999990000      50.000000000000
      1682    2        2.953146620000      56.264999990000      50.000000000000
      1683    2        0.000000000000      57.970000000000      50.000000000000
      1684    2        2.953146620000      59.674999990000      50.000000000000
      1685    2        0.000000000000      61.379999990000      50.000000000000
      1686    2        2.953146620000      63.084999990000      50.000000000000
      1687    2        0.000000000000      64.789999990000      50.000000000000
      1688    2        2.953146620000      66.495000000000      50.000000000000
      1689    2        5.906293250000      54.559999990000      50.000000000000
      1690    2        8.859439880000      56.264999990000      50.000000000000
      1691    2        5.906293250000      57.970000000000      50.000000000000
      1692    2        8.859439880000      59.674999990000      50.000000000000
      1693    2        5.906293250000      61.379999990000      50.000000000000
      1694    2        8.859439880000      63.084999990000      50.000000000000
      1695    2        5.906293250000      64.789999990000      50.000000000000
      1696    2        8.859439880000      66.495000000000      50.000000000000
      1697    1       12.796968710000      56.264999990000      50.000000000000
      1698    1       15.750115350000      54.559999990000      50.000000000000
      1699    1       12.796968710000      59.674999990000      50.000000000000
      1700    1       15.750115350000      57.970000000000      50.000000000000
      1701    1       12.796968710000      63.084999990000      50.000000000000
      1702    1       15.750115350000      61.379999990000      50.000000000000
      1703    1       12.796968710000      66.495000000000      50.000000000000
      1704    1       15.750115350000      64.789999990000      50.000000000000
      1705    1       18.703261970000      56.264999990000      50.000000000000
      1706    1       21.656408600000      54.559999990000      50.000000000000
      1707    1       18.703261970000      59.674999990000      50.000000000000
      1708    1       21.656408600000      57.970000000000      50.000000000000
      1709    1       18.703261970000      63.084999990000      50.000000000000
      1710    1       21.656408600000      61.379999990000      50.000000000000
      1711    1       18.703261970000      66.495000000000      50.000000000000
      1712    1       21.656408600000      64.789999990000      50.000000000000
      1713    2       11.812586510000      54.559999990000      50.000000000000
      1714    2       14.765733130000      56.264999990000      50.000000000000
      1715    2       11.812586510000      57.970000000000      50.000000000000
      1716    2       14.765733130000      59.674999990000      50.000000000000
      1717    2       11.812586510000      61.379999990000      50.000000000000
      1718    2       14.765733130000      63.084999990000      50.000000000000
      1719    2       11.812586510000      64.789999990000      50.000000000000
      1720    2       14.765733130000      66.495000000000      50.000000000000
      1721    2       17.718879760000      54.559999990000      50.000000000000
      1722    2       20.672026390000      56.264999990000      50.000000000000
      1723    2       17.718879760000      57.970000000000      50.000000000000
      1724    2       20.672026390000      59.674999990000      50.000000000000
      1725    2       17.718879760000      61.379999990000      50.000000000000
      1726    2       20.672026390000      63.084999990000      50.000000000000
      1727    2       17.718879760000      64.789999990000      50.000000000000
      1728    2       20.672026390000      66.495000000000      50.000000000000
      1729    1       24.609555220000      56.264999990000      50.000000000000
      1730    1       27.562701850000      54.559999990000      50.000000000000
      1731    1       24.609555220000      59.674999990000      50.000000000000
      1732    1       27.562701850000      57.970000000000      50.000000000000
      1733    3       24.609555220000      63.084999990000      50.000000000000
      1734    1       27.562701850000      61.379999990000      50.000000000000
      1735    1       24.609555220000      66.495000000000      50.000000000000
      1736    1       27.562701850000      64.789999990000      50.000000000000
      1737    1       30.515848480000      56.264999990000      50.000000000000
      1738    1       33.468995110000      54.559999990000      50.000000000000
      1739    1       30.515848480000      59.674999990000      50.000000000000
      1740    1       33.468995110000      57.970000000000      50.000000000000
      1741    1       30.515848480000      63.084999990000      50.000000000000
      1742    1       33.468995110000      61.379999990000      50.000000000000
      1743    1       30.515848480000      66.495000000000      50.000000000000
      1744    1       33.468995110000      64.789999990000      50.000000000000
      1745    2       23.625173020000      54.559999990000      50.000000000000
      1746    2       26.578319640000      56.264999990000      50.000000000000
      1747    2       23.625173020000      57.970000000000      50.000000000000
      1748    2       26.578319640000      59.674999990000      50.000000000000
      1749    2       23.625173020000      61.379999990000      50.000000000000
      1750    2       26.578319640000      63.084999990000      50.000000000000
      1751    2       23.625173020000      64.789999990000      50.000000000000
      1752    2       26.578319640000      66.495000000000      50.000000000000
      1753    2       29.531466270000      54.559999990000      50.000000000000
      1754    2       32.484612890000      56.264999990000      50.000000000000
      1755    2       29.531466270000      57.970000000000      50.000000000000
      1756    2       32.484612890000      59.674999990000      50.000000000000
      1757    2       29.531466270000      61.379999990000      50.000000000000
      1758    2       32.484612890000      63.084999990000      50.000000000000
      1759    2       29.531466270000      64.789999990000      50.000000000000
      1760    2       32.484612890000      66.495000000000      50.000000000000
      1761    1       36.422141730000      56.264999990000      50.000000000000
      1762    1       39.375288360000      54.559999990000      50.000000000000
      1763    1       36.422141730000      59.674999990000      50.000000000000
      1764    1       39.375288360000      57.970000000000      50.000000000000
      1765    1       36.422141730000      63.084999990000      50.000000000000
      1766    1       39.375288360000      61.379999990000      50.000000000000
      1767    1       36.422141730000      66.495000000000      50.000000000000
      1768    1       39.375288360000      64.789999990000      50.000000000000
      1769    1       42.328434990000      56.264999990000      50.000000000000
      1770    3       45.281581620000      54.559999990000      50.000000000000
      1771    1       42.328434990000      59.674999990000      50.000000000000
      1772    1       45.281581620000      57.970000000000      50.000000000000
      1773    1       42.328434990000      63.084999990000      50.000000000000
      1774    1       45.281581620000      61.379999990000      50.000000000000
      1775    1       42.328434990000      66.495000000000      50.000000000000
      1776    1       45.281581620000      64.789999990000      50.000000000000
      1777    2       35.437759530000      54.559999990000      50.000000000000
      1778    2       38.390906150000      56.264999990000      50.000000000000
      1779    2       35.437759530000      57.970000000000      50.000000000000
      1780    2       38.390906150000      59.674999990000      50.000000000000
      1781    2       35.437759530000      61.379999990000      50.000000000000
      1782    2       38.390906150000      63.084999990000      50.000000000000
      1783    2       35.437759530000      64.789999990000      50.000000000000
      1784    2       38.390906150000      66.495000000000      50.000000000000
      1785    2       41.344052780000      54.559999990000      50.000000000000
      1786    2       44.297199400000      56.264999990000      50.000000000000
      1787    2       41.344052780000      57.970000000000      50.000000000000
      1788    2       44.297199400000      59.674999990000      50.000000000000
      1789    2       41.344052780000      61.379999990000      50.000000000000
      1790    2       44.297199400000      63.084999990000      50.000000000000
      1791    2       41.344052780000      64.789999990000      50.000000000000
      1792    2       44.297199400000      66.495000000000      50.000000000000
      1793    1       48.234728240000      56.264999990000      50.000000000000
      1794    1       51.187874870000      54.559999990000      50.000000000000
      1795    1       48.234728240000      59.674999990000      50.000000000000
      1796    1       51.187874870000      57.970000000000      50.000000000000
      1797    1       48.234728240000      63.084999990000      50.000000000000
      1798    1       51.187874870000      61.379999990000      50.000000000000
      1799    1       48.234728240000      66.495000000000      50.000000000000
      1800    1       51.187874870000      64.789999990000      50.000000000000
      1801    1       54.141021490000      56.264999990000      50.000000000000
      1802    1       57.094168130000      54.559999990000      50.000000000000
      1803    1       54.141021490000      59.674999990000      50.000000000000
      1804    1       57.094168130000      57.970000000000      50.000000000000
      1805    1       54.141021490000      63.084999990000      50.000000000000
      1806    1       57.094168130000      61.379999990000      50.000000000000
      1807    1       54.141021490000      66.495000000000      50.000000000000
      1808    1       57.094168130000      64.789999990000      50.000000000000
      1809    2       47.250346040000      54.559999990000      50.000000000000
      1810    2       50.203492660000      56.264999990000      50.000000000000
      1811    2       47.250346040000      57.970000000000      50.000000000000
      1812    2       50.203492660000      59.674999990000      50.000000000000
      1813    2       47.250346040000      61.379999990000      50.000000000000
      1814    2       50.203492660000      63.084999990000      50.000000000000
      1815    2       47.250346040000      64.789999990000      50.000000000000
      1816    2       50.203492660000      66.495000000000      50.000000000000
      1817    2       53.156639290000      54.559999990000      50.000000000000
      1818    2       56.109785910000      56.264999990000      50.000000000000
      1819    2       53.156639290000      57.970000000000      50.000000000000
      1820    2       56.109785910000      59.674999990000      50.000000000000
      1821    2       53.156639290000      61.379999990000      50.000000000000
      1822    2       56.109785910000      63.084999990000      50.000000000000
      1823    2       53.156639290000      64.789999990000      50.000000000000
      1824    2       56.109785910000      66.495000000000      50.000000000000
      1825    1       60.047314750000      56.264999990000      50.000000000000
      1826    1       63.000461380000      54.559999990000      50.000000000000
      1827    1       60.047314750000      59.674999990000      50.000000000000
      1828    1       63.000461380000      57.970000000000      50.000000000000
      1829    1       60.047314750000      63.084999990000      50.000000000000
      1830    1       63.000461380000      61.379999990000      50.000000000000
      1831    1       60.047314750000      66.495000000000      50.000000000000
      1832    1       63.000461380000      64.789999990000      50.000000000000
      1833    1       65.953608000000      56.264999990000      50.000000000000
      1834    1       68.906754640000      54.559999990000      50.000000000000
      1835    1       65.953608000000      59.674999990000      50.000000000000
      1836    1       68.906754640000      57.970000000000      50.000000000000
      1837    1       65.953608000000      63.084999990000      50.000000000000
      1838    1       68.906754640000      61.379999990000      50.000000000000
      1839    1       65.953608000000      66.495000000000      50.000000000000
      1840    1       68.906754640000      64.789999990000      50.000000000000
      1841    2       59.062932550000      54.559999990000      50.000000000000
      1842    2       62.016079170000      56.264999990000      50.000000000000
      1843    2       59.062932550000      57.970000000000      50.000000000000
      1844    2       62.016079170000      59.674999990000      50.000000000000
      1845    2       59.062932550000      61.379999990000      50.000000000000
      1846    2       62.016079170000      63.084999990000      50.000000000000
      1847    2       59.062932550000      64.789999990000      50.000000000000
      1848    2       62.016079170000      66.495000000000      50.000000000000
      1849    2       64.969225800000      54.559999990000      50.000000000000
      1850    2       67.922372420000      56.264999990000      50.000000000000
      1851    2       64.969225800000      57.970000000000      50.000000000000
      1852    2       67.922372420000      59.674999990000      50.000000000000
      1853    2       64.969225800000      61.379999990000      50.000000000000
      1854    2       67.922372420000      63.084999990000      50.000000000000
      1855    2       64.969225800000      64.789999990000      50.000000000000
      1856    2       67.922372420000      66.495000000000      50.000000000000
      1857    1       71.859901260000      56.264999990000      50.000000000000
      1858    1       74.813047890000      54.559999990000      50.000000000000
      1859    1       71.859901260000      59.674999990000      50.000000000000
      1860    1       74.813047890000      57.970000000000      50.000000000000
      1861    1       71.859901260000      63.084999990000      50.000000000000
      1862    1       74.813047890000      61.379999990000      50.000000000000
      1863    1       71.859901260000      66.495000000000      50.000000000000
      1864    1       74.813047890000      64.789999990000      50.000000000000
      1865    1       77.766194510000      56.264999990000      50.000000000000
      1866    1       80.719341150000      54.559999990000      50.000000000000
      1867    1       77.766194510000      59.674999990000      50.000000000000
      1868    1       80.719341150000      57.970000000000      50.000000000000
      1869    1       77.766194510000      63.084999990000      50.000000000000
      1870    1       80.719341150000      61.379999990000      50.000000000000
      1871    1       77.766194510000      66.495000000000      50.000000000000
      1872    1       80.719341150000      64.789999990000      50.000000000000
      1873    2       70.875519050000      54.559999990000      50.000000000000
      1874    2       73.828665680000      56.264999990000      50.000000000000
      1875    2       70.875519050000      57.970000000000      50.000000000000
      1876    2       73.828665680000      59.674999990000      50.000000000000
      1877    2       70.875519050000      61.379999990000      50.000000000000
      1878    2       73.828665680000      63.084999990000      50.000000000000
      1879    2       70.875519050000      64.789999990000      50.000000000000
      1880    2       73.828665680000      66.495000000000      50.000000000000
      1881    2       76.781812310000      54.559999990000      50.000000000000
      1882    2       79.734958930000      56.264999990000      50.000000000000
      1883    2       76.781812310000      57.970000000000      50.000000000000
      1884    2       79.734958930000      59.674999990000      50.000000000000
      1885    2       76.781812310000      61.379999990000      50.000000000000
      1886    2       79.734958930000      63.084999990000      50.000000000000
      1887    2       76.781812310000      64.789999990000      50.000000000000
      1888    2       79.734958930000      66.495000000000      50.000000000000
      1889    1       83.672487770000      56.264999990000      50.000000000000
      1890    1       86.625634400000      54.559999990000      50.000000000000
      1891    1       83.672487770000      59.674999990000      50.000000000000
      1892    1       86.625634400000      57.970000000000      50.000000000000
      1893    1       83.672487770000      63.084999990000      50.000000000000
      1894    1       86.625634400000      61.379999990000      50.000000000000
      1895    1       83.672487770000      66.495000000000      50.000000000000
      1896    1       86.625634400000      64.789999990000      50.000000000000
      1897    1       89.578781020000      56.264999990000      50.000000000000
      1898    1       92.531927650000      54.559999990000      50.000000000000
      1899    1       89.578781020000      59.674999990000      50.000000000000
      1900    1       92.531927650000      57.970000000000      50.000000000000
      1901    1       89.578781020000      63.084999990000      50.000000000000
      1902    1       92.531927650000      61.379999990000      50.000000000000
      1903    3       89.578781020000      66.495000000000      50.000000000000
      1904    1       92.531927650000      64.789999990000      50.000000000000
      1905    2       82.688105560000      54.559999990000      50.000000000000
      1906    2       85.641252190000      56.264999990000      50.000000000000
      1907    2       82.688105560000      57.970000000000      50.000000000000
      1908    2       85.641252190000      59.674999990000      50.000000000000
      1909    2       82.688105560000      61.379999990000      50.000000000000
      1910    2       85.641252190000      63.084999990000      50.000000000000
      1911    2       82.688105560000      64.789999990000      50.000000000000
      1912    2       85.641252190000      66.495000000000      50.000000000000
      1913    2       88.594398820000      54.559999990000      50.000000000000
      1914    2       91.547545440000      56.264999990000      50.000000000000
      1915    2       88.594398820000      57.970000000000      50.000000000000
      1916    2       91.547545440000      59.674999990000      50.000000000000
      1917    2       88.594398820000      61.379999990000      50.000000000000
      1918    2       91.547545440000      63.084999990000      50.000000000000
      1919    2       88.594398820000      64.789999990000      50.000000000000
      1920    2       91.547545440000      66.495000000000      50.000000000000
      1921    1       95.485074280000      56.264999990000      50.000000000000
      1922    1       98.438220910000      54.559999990000      50.000000000000
      1923    1       95.485074280000      59.674999990000      50.000000000000
      1924    1       98.438220910000      57.970000000000      50.000000000000
      1925    1       95.485074280000      63.084999990000      50.000000000000
      1926    1       98.438220910000      61.379999990000      50.000000000000
      1927    1       95.485074280000      66.495000000000      50.000000000000
      1928    1       98.438220910000      64.789999990000      50.000000000000
      1929    3      101.391367530000      56.264999990000      50.000000000000
      1930    3      104.344514160000      54.559999990000      50.000000000000
      1931    1      101.391367530000      59.674999990000      50.000000000000
      1932    1      104.344514160000      57.970000000000      50.000000000000
      1933    1      101.391367530000      63.084999990000      50.000000000000
      1934    1      104.344514160000      61.379999990000      50.000000000000
      1935    1      101.391367530000      66.495000000000      50.000000000000
      1936    3      104.344514160000      64.789999990000      50.000000000000
      1937    2       94.500692070000      54.559999990000      50.000000000000
      1938    2       97.453838690000      56.264999990000      50.000000000000
      1939    2       94.500692070000      57.970000000000      50.000000000000
      1940    2       97.453838690000      59.674999990000      50.000000000000
      1941    2       94.500692070000      61.379999990000      50.000000000000
      1942    2       97.453838690000      63.084999990000      50.000000000000
      1943    2       94.500692070000      64.789999990000      50.000000000000
      1944    2       97.453838690000      66.495000000000      50.000000000000
      1945    2      100.406985330000      54.559999990000      50.000000000000
      1946    2      103.360131950000      56.264999990000      50.000000000000
      1947    2      100.406985330000      57.970000000000      50.000000000000
      1948    2      103.360131950000      59.674999990000      50.000000000000
      1949    2      100.406985330000      61.379999990000      50.000000000000
      1950    2      103.360131950000      63.084999990000      50.000000000000
      1951    2      100.406985330000      64.789999990000      50.000000000000
      1952    2      103.360131950000      66.495000000000      50.000000000000
      1953    1      107.297660790000      56.264999990000      50.000000000000
      1954    1      110.250807420000      54.559999990000      50.000000000000
      1955    1      107.297660790000      59.674999990000      50.000000000000
      1956    1      110.250807420000      57.970000000000      50.000000000000
      1957    1      107.297660790000      63.084999990000      50.000000000000
      1958    1      110.250807420000      61.379999990000      50.000000000000
      1959    3      107.297660790000      66.495000000000      50.000000000000
      1960    1      110.250807420000      64.789999990000      50.000000000000
      1961    1      113.203954040000      56.264999990000      50.000000000000
      1962    3      116.157100670000      54.559999990000      50.000000000000
      1963    3      113.203954040000      59.674999990000      50.000000000000
      1964    3      116.157100670000      57.970000000000      50.000000000000
      1965    1      113.203954040000      63.084999990000      50.000000000000
      1966    1      116.157100670000      61.379999990000      50.000000000000
      1967    1      113.203954040000      66.495000000000      50.000000000000
      1968    1      116.157100670000      64.789999990000      50.000000000000
      1969    2      106.313278580000      54.559999990000      50.000000000000
      1970    2      109.266425200000      56.264999990000      50.000000000000
      1971    2      106.313278580000      57.970000000000      50.000000000000
      1972    2      109.266425200000      59.674999990000      50.000000000000
      1973    2      106.313278580000      61.379999990000      50.000000000000
      1974    2      109.266425200000      63.084999990000      50.000000000000
      1975    2      106.313278580000      64.789999990000      50.000000000000
      1976    2      109.266425200000      66.495000000000      50.000000000000
      1977    2      112.219571840000      54.559999990000      50.000000000000
      1978    2      115.172718460000      56.264999990000      50.000000000000
      1979    2      112.219571840000      57.970000000000      50.000000000000
      1980    2      115.172718460000      59.674999990000      50.000000000000
      1981    2      112.219571840000      61.379999990000      50.000000000000
      1982    2      115.172718460000      63.084999990000      50.000000000000
      1983    2      112.219571840000      64.789999990000      50.000000000000
      1984    2      115.172718460000      66.495000000000      50.000000000000
      1985    1      119.110247290000      56.264999990000      50.000000000000
      1986    1      122.063393930000      54.559999990000      50.000000000000
      1987    1      119.110247290000      59.674999990000      50.000000000000
      1988    1      122.063393930000      57.970000000000      50.000000000000
      1989    1      119.110247290000      63.084999990000      50.000000000000
      1990    3      122.063393930000      61.379999990000      50.000000000000
      1991    1      119.110247290000      66.495000000000      50.000000000000
      1992    1      122.063393930000      64.789999990000      50.000000000000
      1993    1      125.016540550000      56.264999990000      50.000000000000
      1994    1      127.969687180000      54.559999990000      50.000000000000
      1995    1      125.016540550000      59.674999990000      50.000000000000
      1996    1      127.969687180000      57.970000000000      50.000000000000
      1997    1      125.016540550000      63.084999990000      50.000000000000
      1998    3      127.969687180000      61.379999990000      50.000000000000
      1999    1      125.016540550000      66.495000000000      50.000000000000
      2000    1      127.969687180000      64.789999990000      50.000000000000
      2001    2      118.125865090000      54.559999990000      50.000000000000
      2002    2      121.079011710000      56.264999990000      50.000000000000
      2003    2      118.125865090000      57.970000000000      50.000000000000
      2004    2      121.079011710000      59.674999990000      50.000000000000
      2005    2      118.125865090000      61.379999990000      50.000000000000
      2006    2      121.079011710000      63.084999990000      50.000000000000
      2007    2      118.125865090000      64.789999990000      50.000000000000
      2008    2      121.079011710000      66.495000000000      50.000000000000
      2009    2      124.032158350000      54.559999990000      50.000000000000
      2010    2      126.985304970000      56.264999990000      50.000000000000
      2011    2      124.032158350000      57.970000000000      50.000000000000
      2012    2      126.985304970000      59.674999990000      50.000000000000
      2013    2      124.032158350000      61.379999990000      50.000000000000
      2014    2      126.985304970000      63.084999990000      50.000000000000
      2015    2      124.032158350000      64.789999990000      50.000000000000
      2016    2      126.985304970000      66.495000000000      50.000000000000
      2017    1      130.922833800000      56.264999990000      50.000000000000
      2018    1      133.875980440000      54.559999990000      50.000000000000
      2019    3      130.922833800000      59.674999990000      50.000000000000
      2020    1      133.875980440000      57.970000000000      50.000000000000
      2021    1      130.922833800000      63.084999990000      50.000000000000
      2022    1      133.875980440000      61.379999990000      50.000000000000
      2023    1      130.922833800000      66.495000000000      50.000000000000
      2024    1      133.875980440000      64.789999990000      50.000000000000
      2025    1      136.829127060000      56.264999990000      50.000000000000
      2026    3      139.782273690000      54.559999990000      50.000000000000
      2027    1      136.829127060000      59.674999990000      50.000000000000
      2028    1      139.782273690000      57.970000000000      50.000000000000
      2029    1      136.829127060000      63.084999990000      50.000000000000
      2030    1      139.782273690000      61.379999990000      50.000000000000
      2031    1      136.829127060000      66.495000000000      50.000000000000
      2032    1      139.782273690000      64.789999990000      50.000000000000
      2033    2      129.938451600000      54.559999990000      50.000000000000
      2034    2      132.891598220000      56.264999990000      50.000000000000
      2035    2      129.938451600000      57.970000000000      50.000000000000
      2036    2      132.891598220000      59.674999990000      50.000000000000
      2037    2      129.938451600000      61.379999990000      50.000000000000
      2038    2      132.891598220000      63.084999990000      50.000000000000
      2039    2      129.938451600000      64.789999990000      50.000000000000
      2040    2      132.891598220000      66.495000000000      50.000000000000
      2041    2      135.844744850000      54.559999990000      50.000000000000
      2042    2      138.797891480000      56.264999990000      50.000000000000
      2043    2      135.844744850000      57.970000000000      50.000000000000
      2044    2      138.797891480000      59.674999990000      50.000000000000
      2045    2      135.844744850000      61.379999990000      50.000000000000
      2046    2      138.797891480000      63.084999990000      50.000000000000
      2047    2      135.844744850000      64.789999990000      50.000000000000
      2048    2      138.797891480000      66.495000000000      50.000000000000
      2049    1      142.735420310000      56.264999990000      50.000000000000
      2050    1      145.688566950000      54.559999990000      50.000000000000
      2051    1      142.735420310000      59.674999990000      50.000000000000
      2052    1      145.688566950000      57.970000000000      50.000000000000
      2053    1      142.735420310000      63.084999990000      50.000000000000
      2054    1      145.688566950000      61.379999990000      50.000000000000
      2055    1      142.735420310000      66.495000000000      50.000000000000
      2056    1      145.688566950000      64.789999990000      50.000000000000
      2057    1      148.641713570000      56.264999990000      50.000000000000
      2058    1      151.594860200000      54.559999990000      50.000000000000
      2059    1      148.641713570000      59.674999990000      50.000000000000
      2060    3      151.594860200000      57.970000000000      50.000000000000
      2061    1      148.641713570000      63.084999990000      50.000000000000
      2062    1      151.594860200000      61.379999990000      50.000000000000
      2063    1      148.641713570000      66.495000000000      50.000000000000
      2064    1      151.594860200000      64.789999990000      50.000000000000
      2065    2      141.751038110000      54.559999990000      50.000000000000
      2066    2      144.704184730000      56.264999990000      50.000000000000
      2067    2      141.751038110000      57.970000000000      50.000000000000
      2068    2      144.704184730000      59.674999990000      50.000000000000
      2069    2      141.751038110000      61.379999990000      50.000000000000
      2070    2      144.704184730000      63.084999990000      50.000000000000
      2071    2      141.751038110000      64.789999990000      50.000000000000
      2072    2      144.704184730000      66.495000000000      50.000000000000
      2073    2      147.657331360000      54.559999990000      50.000000000000
      2074    2      150.610477990000      56.264999990000      50.000000000000
      2075    2      147.657331360000      57.970000000000      50.000000000000
      2076    2      150.610477990000      59.674999990000      50.000000000000
      2077    2      147.657331360000      61.379999990000      50.000000000000
      2078    2      150.610477990000      63.084999990000      50.000000000000
      2079    2      147.657331360000      64.789999990000      50.000000000000
      2080    2      150.610477990000      66.495000000000      50.000000000000
      2081    1        0.984382200000      69.904999990000      50.000000000000
      2082    1        3.937528840000      68.199999990000      50.000000000000
      2083    1        0.984382200000      73.314999990000      50.000000000000
      2084    1        3.937528840000      71.609999990000      50.000000000000
      2085    1        0.984382200000      76.724999990000      50.000000000000
      2086    1        3.937528840000      75.019999990000      50.000000000000
      2087    3        0.984382200000      80.134999990000      50.000000000000
      2088    1        3.937528840000      78.429999990000      50.000000000000
      2089    1        6.890675460000      69.904999990000      50.000000000000
      2090    1        9.843822090000      68.199999990000      50.000000000000
      2091    1        6.890675460000      73.314999990000      50.000000000000
      2092    1        9.843822090000      71.609999990000      50.000000000000
      2093    1        6.890675460000      76.724999990000      50.000000000000
      2094    1        9.843822090000      75.019999990000      50.000000000000
      2095    3        6.890675460000      80.134999990000      50.000000000000
      2096    1        9.843822090000      78.429999990000      50.000000000000
      2097    2        0.000000000000      68.199999990000      50.000000000000
      2098    2        2.953146620000      69.904999990000      50.000000000000
      2099    2        0.000000000000      71.609999990000      50.000000000000
      2100    2        2.953146620000      73.314999990000      50.000000000000
      2101    2        0.000000000000      75.019999990000      50.000000000000
      2102    2        2.953146620000      76.724999990000      50.000000000000
      2103    2        0.000000000000      78.429999990000      50.000000000000
      2104    2        2.953146620000      80.134999990000      50.000000000000
      2105    2        5.906293250000      68.199999990000      50.000000000000
      2106    2        8.859439880000      69.904999990000      50.000000000000
      2107    2        5.906293250000      71.609999990000      50.000000000000
      2108    2        8.859439880000      73.314999990000      50.000000000000
      2109    2        5.906293250000      75.019999990000      50.000000000000
      2110    2        8.859439880000      76.724999990000      50.000000000000
      2111    2        5.906293250000      78.429999990000      50.000000000000
      2112    2        8.859439880000      80.134999990000      50.000000000000
      2113    1       12.796968710000      69.904999990000      50.000000000000
      2114    1       15.750115350000      68.199999990000      50.000000000000
      2115    1       12.796968710000      73.314999990000      50.000000000000
      2116    1       15.750115350000      71.609999990000      50.000000000000
      2117    1       12.796968710000      76.724999990000      50.000000000000
      2118    1       15.750115350000      75.019999990000      50.000000000000
      2119    1       12.796968710000      80.134999990000      50.000000000000
      2120    1       15.750115350000      78.429999990000      50.000000000000
      2121    1       18.703261970000      69.904999990000      50.000000000000
      2122    1       21.656408600000      68.199999990000      50.000000000000
      2123    3       18.703261970000      73.314999990000      50.000000000000
      2124    1       21.656408600000      71.609999990000      50.000000000000
      2125    1       18.703261970000      76.724999990000      50.000000000000
      2126    1       21.656408600000      75.019999990000      50.000000000000
      2127    1       18.703261970000      80.134999990000      50.000000000000
      2128    1       21.656408600000      78.429999990000      50.000000000000
      2129    2       11.812586510000      68.199999990000      50.000000000000
      2130    2       14.765733130000      69.904999990000      50.000000000000
      2131    2       11.812586510000      71.609999990000      50.000000000000
      2132    2       14.765733130000      73.314999990000      50.000000000000
      2133    2       11.812586510000      75.019999990000      50.000000000000
      2134    2       14.765733130000      76.724999990000      50.000000000000
      2135    2       11.812586510000      78.429999990000      50.000000000000
      2136    2       14.765733130000      80.134999990000      50.000000000000
      2137    2       17.718879760000      68.199999990000      50.000000000000
      2138    2       20.672026390000      69.904999990000      50.000000000000
      2139    2       17.718879760000      71.609999990000      50.000000000000
      2140    2       20.672026390000      73.314999990000      50.000000000000
      2141    2       17.718879760000      75.019999990000      50.000000000000
      2142    2       20.672026390000      76.724999990000      50.000000000000
      2143    2       17.718879760000      78.429999990000      50.000000000000
      2144    2       20.672026390000      80.134999990000      50.000000000000
      2145    1       24.609555220000      69.904999990000      50.000000000000
      2146    1       27.562701850000      68.199999990000      50.000000000000
      2147    1       24.609555220000      73.314999990000      50.000000000000
      2148    1       27.562701850000      71.609999990000      50.000000000000
      2149    1       24.609555220000      76.724999990000      50.000000000000
      2150    1       27.562701850000      75.019999990000      50.000000000000
      2151    1       24.609555220000      80.134999990000      50.000000000000
      2152    1       27.562701850000      78.429999990000      50.000000000000
      2153    1       30.515848480000      69.904999990000      50.000000000000
      2154    1       33.468995110000      68.199999990000      50.000000000000
      2155    1       30.515848480000      73.314999990000      50.000000000000
      2156    1       33.468995110000      71.609999990000      50.000000000000
      2157    1       30.515848480000      76.724999990000      50.000000000000
      2158    3       33.468995110000      75.019999990000      50.000000000000
      2159    1       30.515848480000      80.134999990000      50.000000000000
      2160    1       33.468995110000      78.429999990000      50.000000000000
      2161    2       23.625173020000      68.199999990000      50.000000000000
      2162    2       26.578319640000      69.904999990000      50.000000000000
      2163    2       23.625173020000      71.609999990000      50.000000000000
      2164    2       26.578319640000      73.314999990000      50.000000000000
      2165    2       23.625173020000      75.019999990000      50.000000000000
      2166    2       26.578319640000      76.724999990000      50.000000000000
      2167    2       23.625173020000      78.429999990000      50.000000000000
      2168    2       26.578319640000      80.134999990000      50.000000000000
      2169    2       29.531466270000      68.199999990000      50.000000000000
      2170    2       32.484612890000      69.904999990000      50.000000000000
      2171    2       29.531466270000      71.609999990000      50.000000000000
      2172    2       32.484612890000      73.314999990000      50.000000000000
      2173    2       29.531466270000      75.019999990000      50.000000000000
      2174    2       32.484612890000      76.724999990000      50.000000000000
      2175    2       29.531466270000      78.429999990000      50.000000000000
      2176    2       32.484612890000      80.134999990000      50.000000000000
      2177    1       36.422141730000      69.904999990000      50.000000000000
      2178    1       39.375288360000      68.199999990000      50.000000000000
      2179    3       36.422141730000      73.314999990000      50.000000000000
      2180    1       39.375288360000      71.609999990000      50.000000000000
      2181    1       36.422141730000      76.724999990000      50.000000000000
      2182    1       39.375288360000      75.019999990000      50.000000000000
      2183    1       36.422141730000      80.134999990000      50.000000000000
      2184    1       39.375288360000      78.429999990000      50.000000000000
      2185    1       42.328434990000      69.904999990000      50.000000000000
      2186    1       45.281581620000      68.199999990000      50.000000000000
      2187    3       42.328434990000      73.314999990000      50.000000000000
      2188    3       45.281581620000      71.609999990000      50.000000000000
      2189    1       42.328434990000      76.724999990000      50.000000000000
      2190    1       45.281581620000      75.019999990000      50.000000000000
      2191    3       42.328434990000      80.134999990000      50.000000000000
      2192    1       45.281581620000      78.429999990000      50.000000000000
      2193    2       35.437759530000      68.199999990000      50.000000000000
      2194    2       38.390906150000      69.904999990000      50.000000000000
      2195    2       35.437759530000      71.609999990000      50.000000000000
      2196    2       38.390906150000      73.314999990000      50.000000000000
      2197    2       35.437759530000      75.019999990000      50.000000000000
      2198    2       38.390906150000      76.724999990000      50.000000000000
      2199    2       35.437759530000      78.429999990000      50.000000000000
      2200    2       38.390906150000      80.134999990000      50.000000000000
      2201    2       41.344052780000      68.199999990000      50.000000000000
      2202    2       44.297199400000      69.904999990000      50.000000000000
      2203    2       41.344052780000      71.609999990000      50.000000000000
      2204    2       44.297199400000      73.314999990000      50.000000000000
      2205    2       41.344052780000      75.019999990000      50.000000000000
      2206    2       44.297199400000      76.724999990000      50.000000000000
      2207    2       41.344052780000      78.429999990000      50.000000000000
      2208    2       44.297199400000      80.134999990000      50.000000000000
      2209    1       48.234728240000      69.904999990000      50.000000000000
      2210    1       51.187874870000      68.199999990000      50.000000000000
      2211    1       48.234728240000      73.314999990000      50.000000000000
      2212    1       51.187874870000      71.609999990000      50.000000000000
      2213    1       48.234728240000      76.724999990000      50.000000000000
      2214    3       51.187874870000      75.019999990000      50.000000000000
      2215    1       48.234728240000      80.134999990000      50.000000000000
      2216    1       51.187874870000      78.429999990000      50.000000000000
      2217    1       54.141021490000      69.904999990000      50.000000000000
      2218    1       57.094168130000      68.199999990000      50.000000000000
      2219    3       54.141021490000      73.314999990000      50.000000000000
      2220    1       57.094168130000      71.609999990000      50.000000000000
      2221    1       54.141021490000      76.724999990000      50.000000000000
      2222    3       57.094168130000      75.019999990000      50.000000000000
      2223    1       54.141021490000      80.134999990000      50.000000000000
      2224    1       57.094168130000      78.429999990000      50.000000000000
      2225    2       47.250346040000      68.199999990000      50.000000000000
      2226    2       50.203492660000      69.904999990000      50.000000000000
      2227    2       47.250346040000      71.609999990000      50.000000000000
      2228    2       50.203492660000      73.314999990000      50.000000000000
      2229    2       47.250346040000      75.019999990000      50.000000000000
      2230    2       50.203492660000      76.724999990000      50.000000000000
      2231    2       47.250346040000      78.429999990000      50.000000000000
      2232    2       50.203492660000      80.134999990000      50.000000000000
      2233    2       53.156639290000      68.199999990000      50.000000000000
      2234    2       56.109785910000      69.904999990000      50.000000000000
      2235    2       53.156639290000      71.609999990000      50.000000000000
      2236    2       56.109785910000      73.314999990000      50.000000000000
      2237    2       53.156639290000      75.019999990000      50.000000000000
      2238    2       56.109785910000      76.724999990000      50.000000000000
      2239    2       53.156639290000      78.429999990000      50.000000000000
      2240    2       56.109785910000      80.134999990000      50.000000000000
      2241    1       60.047314750000      69.904999990000      50.000000000000
      2242    1       63.000461380000      68.199999990000      50.000000000000
      2243    1       60.047314750000      73.314999990000      50.000000000000
      2244    1       63.000461380000      71.609999990000      50.000000000000
      2245    1       60.047314750000      76.724999990000      50.000000000000
      2246    1       63.000461380000      75.019999990000      50.000000000000
      2247    3       60.047314750000      80.134999990000      50.000000000000
      2248    1       63.000461380000      78.429999990000      50.000000000000
      2249    1       65.953608000000      69.904999990000      50.000000000000
      2250    1       68.906754640000      68.199999990000      50.000000000000
      2251    1       65.953608000000      73.314999990000      50.000000000000
      2252    1       68.906754640000      71.609999990000      50.000000000000
      2253    1       65.953608000000      76.724999990000      50.000000000000
      2254    1       68.906754640000      75.019999990000      50.000000000000
      2255    1       65.953608000000      80.134999990000      50.000000000000
      2256    1       68.906754640000      78.429999990000      50.000000000000
      2257    2       59.062932550000      68.199999990000      50.000000000000
      2258    2       62.016079170000      69.904999990000      50.000000000000
      2259    2       59.062932550000      71.609999990000      50.000000000000
      2260    2       62.016079170000      73.314999990000      50.000000000000
      2261    2       59.062932550000      75.019999990000      50.000000000000
      2262    2       62.016079170000      76.724999990000      50.000000000000
      2263    2       59.062932550000      78.429999990000      50.000000000000
      2264    2       62.016079170000      80.134999990000      50.000000000000
      2265    2       64.969225800000      68.199999990000      50.000000000000
      2266    2       67.922372420000      69.904999990000      50.000000000000
      2267    2       64.969225800000      71.609999990000      50.000000000000
      2268    2       67.922372420000      73.314999990000      50.000000000000
      2269    2       64.969225800000      75.019999990000      50.000000000000
      2270    2       67.922372420000      76.724999990000      50.000000000000
      2271    2       64.969225800000      78.429999990000      50.000000000000
      2272    2       67.922372420000      80.134999990000      50.000000000000
      2273    1       71.859901260000      69.904999990000      50.000000000000
      2274    1       74.813047890000      68.199999990000      50.000000000000
      2275    1       71.859901260000      73.314999990000      50.000000000000
      2276    1       74.813047890000      71.609999990000      50.000000000000
      2277    1       71.859901260000      76.724999990000      50.000000000000
      2278    1       74.813047890000      75.019999990000      50.000000000000
      2279    1       71.859901260000      80.134999990000      50.000000000000
      2280    1       74.813047890000      78.429999990000      50.000000000000
      2281    1       77.766194510000      69.904999990000      50.000000000000
      2282    1       80.719341150000      68.199999990000      50.000000000000
      2283    3       77.766194510000      73.314999990000      50.000000000000
      2284    1       80.719341150000      71.609999990000      50.000000000000
      2285    1       77.766194510000      76.724999990000      50.000000000000
      2286    1       80.719341150000      75.019999990000      50.000000000000
      2287    1       77.766194510000      80.134999990000      50.000000000000
      2288    1       80.719341150000      78.429999990000      50.000000000000
      2289    2       70.875519050000      68.199999990000      50.000000000000
      2290    2       73.828665680000      69.904999990000      50.000000000000
      2291    2       70.875519050000      71.609999990000      50.000000000000
      2292    2       73.828665680000      73.314999990000      50.000000000000
      2293    2       70.875519050000      75.019999990000      50.000000000000
      2294    2       73.828665680000      76.724999990000      50.000000000000
      2295    2       70.875519050000      78.429999990000      50.000000000000
      2296    2       73.828665680000      80.134999990000      50.000000000000
      2297    2       76.781812310000      68.199999990000      50.000000000000
      2298    2       79.734958930000      69.904999990000      50.000000000000
      2299    2       76.781812310000      71.609999990000      50.000000000000
      2300    2       79.734958930000      73.314999990000      50.000000000000
      2301    2       76.781812310000      75.019999990000      50.000000000000
      2302    2       79.734958930000      76.724999990000      50.000000000000
      2303    2       76.781812310000      78.429999990000      50.000000000000
      2304    2       79.734958930000      80.134999990000      50.000000000000
      2305    1       83.672487770000      69.904999990000      50.000000000000
      2306    1       86.625634400000      68.199999990000      50.000000000000
      2307    1       83.672487770000      73.314999990000      50.000000000000
      2308    1       86.625634400000      71.609999990000      50.000000000000
      2309    1       83.672487770000      76.724999990000      50.000000000000
      2310    1       86.625634400000      75.019999990000      50.000000000000
      2311    1       83.672487770000      80.134999990000      50.000000000000
      2312    1       86.625634400000      78.429999990000      50.000000000000
      2313    1       89.578781020000      69.904999990000      50.000000000000
      2314    3       92.531927650000      68.199999990000      50.000000000000
      2315    1       89.578781020000      73.314999990000      50.000000000000
      2316    1       92.531927650000      71.609999990000      50.000000000000
      2317    1       89.578781020000      76.724999990000      50.000000000000
      2318    1       92.531927650000      75.019999990000      50.000000000000
      2319    1       89.578781020000      80.134999990000      50.000000000000
      2320    1       92.531927650000      78.429999990000      50.000000000000
      2321    2       82.688105560000      68.199999990000      50.000000000000
      2322    2       85.641252190000      69.904999990000      50.000000000000
      2323    2       82.688105560000      71.609999990000      50.000000000000
      2324    2       85.641252190000      73.314999990000      50.000000000000
      2325    2       82.688105560000      75.019999990000      50.000000000000
      2326    2       85.641252190000      76.724999990000      50.000000000000
      2327    2       82.688105560000      78.429999990000      50.000000000000
      2328    2       85.641252190000      80.134999990000      50.000000000000
      2329    2       88.594398820000      68.199999990000      50.000000000000
      2330    2       91.547545440000      69.904999990000      50.000000000000
      2331    2       88.594398820000      71.609999990000      50.000000000000
      2332    2       91.547545440000      73.314999990000      50.000000000000
      2333    2       88.594398820000      75.019999990000      50.000000000000
      2334    2       91.547545440000      76.724999990000      50.000000000000
      2335    2       88.594398820000      78.429999990000      50.000000000000
      2336    2       91.547545440000      80.134999990000      50.000000000000
      2337    1       95.485074280000      69.904999990000      50.000000000000
      2338    1       98.438220910000      68.199999990000      50.000000000000
      2339    1       95.485074280000      73.314999990000      50.000000000000
      2340    1       98.438220910000      71.609999990000      50.000000000000
      2341    1       95.485074280000      76.724999990000      50.000000000000
      2342    1       98.438220910000      75.019999990000      50.000000000000
      2343    3       95.485074280000      80.134999990000      50.000000000000
      2344    1       98.438220910000      78.429999990000      50.000000000000
      2345    1      101.391367530000      69.904999990000      50.000000000000
      2346    1      104.344514160000      68.199999990000      50.000000000000
      2347    1      101.391367530000      73.314999990000      50.000000000000
      2348    1      104.344514160000      71.609999990000      50.000000000000
      2349    3      101.391367530000      76.724999990000      50.000000000000
      2350    1      104.344514160000      75.019999990000      50.000000000000
      2351    1      101.391367530000      80.134999990000      50.000000000000
      2352    1      104.344514160000      78.429999990000      50.000000000000
      2353    2       94.500692070000      68.199999990000      50.000000000000
      2354    2       97.453838690000      69.904999990000      50.000000000000
      2355    2       94.500692070000      71.609999990000      50.000000000000
      2356    2       97.453838690000      73.314999990000      50.000000000000
      2357    2       94.500692070000      75.019999990000      50.000000000000
      2358    2       97.453838690000      76.724999990000      50.000000000000
      2359    2       94.500692070000      78.429999990000      50.000000000000
      2360    2       97.453838690000      80.134999990000      50.000000000000
      2361    2      100.406985330000      68.199999990000      50.000000000000
      2362    2      103.360131950000      69.904999990000      50.000000000000
      2363    2      100.406985330000      71.609999990000      50.000000000000
      2364    2      103.360131950000      73.314999990000      50.000000000000
      2365    2      100.406985330000      75.019999990000      50.000000000000
      2366    2      103.360131950000      76.724999990000      50.000000000000
      2367    2      100.406985330000      78.429999990000      50.000000000000
      2368    2      103.360131950000      80.134999990000      50.000000000000
      2369    1      107.297660790000      69.904999990000      50.000000000000
      2370    1      110.250807420000      68.199999990000      50.000000000000
      2371    1      107.297660790000      73.314999990000      50.000000000000
      2372    1      110.250807420000      71.609999990000      50.000000000000
      2373    1      107.297660790000      76.724999990000      50.000000000000
      2374    1      110.250807420000      75.019999990000      50.000000000000
      2375    1      107.297660790000      80.134999990000      50.000000000000
      2376    1      110.250807420000      78.429999990000      50.000000000000
      2377    1      113.203954040000      69.904999990000      50.000000000000
      2378    1      116.157100670000      68.199999990000      50.000000000000
      2379    1      113.203954040000      73.314999990000      50.000000000000
      2380    1      116.157100670000      71.609999990000      50.000000000000
      2381    1      113.203954040000      76.724999990000      50.000000000000
      2382    1      116.157100670000      75.019999990000      50.000000000000
      2383    1      113.203954040000      80.134999990000      50.000000000000
      2384    1      116.157100670000      78.429999990000      50.000000000000
      2385    2      106.313278580000      68.199999990000      50.000000000000
      2386    2      109.266425200000      69.904999990000      50.000000000000
      2387    2      106.313278580000      71.609999990000      50.000000000000
      2388    2      109.266425200000      73.314999990000      50.000000000000
      2389    2      106.313278580000      75.019999990000      50.000000000000
      2390    2      109.266425200000      76.724999990000      50.000000000000
      2391    2      106.313278580000      78.429999990000      50.000000000000
      2392    2      109.266425200000      80.134999990000      50.000000000000
      2393    2      112.219571840000      68.199999990000      50.000000000000
      2394    2      115.172718460000      69.904999990000      50.000000000000
      2395    2      112.219571840000      71.609999990000      50.000000000000
      2396    2      115.172718460000      73.314999990000      50.000000000000
      2397    2      112.219571840000      75.019999990000      50.000000000000
      2398    2      115.172718460000      76.724999990000      50.000000000000
      2399    2      112.219571840000      78.429999990000      50.000000000000
      2400    2      115.172718460000      80.134999990000      50.000000000000
      2401    1      119.110247290000      69.904999990000      50.000000000000
      2402    1      122.063393930000      68.199999990000      50.000000000000
      2403    1      119.110247290000      73.314999990000      50.000000000000
      2404    1      122.063393930000      71.609999990000      50.000000000000
      2405    1      119.110247290000      76.724999990000      50.000000000000
      2406    1      122.063393930000      75.019999990000      50.000000000000
      2407    1      119.110247290000      80.134999990000      50.000000000000
      2408    1      122.063393930000      78.429999990000      50.000000000000
      2409    1      125.016540550000      69.904999990000      50.000000000000
      2410    1      127.969687180000      68.199999990000      50.000000000000
      2411    1      125.016540550000      73.314999990000      50.000000000000
      2412    1      127.969687180000      71.609999990000      50.000000000000
      2413    1      125.016540550000      76.724999990000      50.000000000000
      2414    1      127.969687180000      75.019999990000      50.000000000000
      2415    1      125.016540550000      80.134999990000      50.000000000000
      2416    1      127.969687180000      78.429999990000      50.000000000000
      2417    2      118.125865090000      68.199999990000      50.000000000000
      2418    2      121.079011710000      69.904999990000      50.000000000000
      2419    2      118.125865090000      71.609999990000      50.000000000000
      2420    2      121.079011710000      73.314999990000      50.000000000000
      2421    2      118.125865090000      75.019999990000      50.000000000000
      2422    2      121.079011710000      76.724999990000      50.000000000000
      2423    2      118.125865090000      78.429999990000      50.000000000000
      2424    2      121.079011710000      80.134999990000      50.000000000000
      2425    2      124.032158350000      68.199999990000      50.000000000000
      2426    2      126.985304970000      69.904999990000      50.000000000000
      2427    2      124.032158350000      71.609999990000      50.000000000000
      2428    2      126.985304970000      73.314999990000      50.000000000000
      2429    2      124.032158350000      75.019999990000      50.000000000000
      2430    2      126.985304970000      76.724999990000      50.000000000000
      2431    2      124.032158350000      78.429999990000      50.000000000000
      2432    2      126.985304970000      80.134999990000      50.000000000000
      2433    1      130.922833800000      69.904999990000      50.000000000000
      2434    1      133.875980440000      68.199999990000      50.000000000000
      2435    1      130.922833800000      73.314999990000      50.000000000000
      2436    1      133.875980440000      71.609999990000      50.000000000000
      2437    1      130.922833800000      76.724999990000      50.000000000000
      2438    1      133.875980440000      75.019999990000      50.000000000000
      2439    3      130.922833800000      80.134999990000      50.000000000000
      2440    1      133.875980440000      78.429999990000      50.000000000000
      2441    1      136.829127060000      69.904999990000      50.000000000000
      2442    1      139.782273690000      68.199999990000      50.000000000000
      2443    1      136.829127060000      73.314999990000      50.000000000000
      2444    1      139.782273690000      71.609999990000      50.000000000000
      2445    1      136.829127060000      76.724999990000      50.000000000000
      2446    1      139.782273690000      75.019999990000      50.000000000000
      2447    1      136.829127060000      80.134999990000      50.000000000000
      2448    1      139.782273690000      78.429999990000      50.000000000000
      2449    2      129.938451600000      68.199999990000      50.000000000000
      2450    2      132.891598220000      69.904999990000      50.000000000000
      2451    2      129.938451600000      71.609999990000      50.000000000000
      2452    2      132.891598220000      73.314999990000      50.000000000000
      2453    2      129.938451600000      75.019999990000      50.000000000000
      2454    2      132.891598220000      76.724999990000      50.000000000000
      2455    2      129.938451600000      78.429999990000      50.000000000000
      2456    2      132.891598220000      80.134999990000      50.000000000000
      2457    2      135.844744850000      68.199999990000      50.000000000000
      2458    2      138.797891480000      69.904999990000      50.000000000000
      2459    2      135.844744850000      71.609999990000      50.000000000000
      2460    2      138.797891480000      73.314999990000      50.000000000000
      2461    2      135.844744850000      75.019999990000      50.000000000000
      2462    2      138.797891480000      76.724999990000      50.000000000000
      2463    2      135.844744850000      78.429999990000      50.000000000000
      2464    2      138.797891480000      80.134999990000      50.000000000000
      2465    3      142.735420310000      69.904999990000      50.000000000000
      2466    1      145.688566950000      68.199999990000      50.000000000000
      2467    1      142.735420310000      73.314999990000      50.000000000000
      2468    1      145.688566950000      71.609999990000      50.000000000000
      2469    1      142.735420310000      76.724999990000      50.000000000000
      2470    1      145.688566950000      75.019999990000      50.000000000000
      2471    1      142.735420310000      80.134999990000      50.000000000000
      2472    1      145.688566950000      78.429999990000      50.000000000000
      2473    1      148.641713570000      69.904999990000      50.000000000000
      2474    1      151.594860200000      68.199999990000      50.000000000000
      2475    1      148.641713570000      73.314999990000      50.000000000000
      2476    1      151.594860200000      71.609999990000      50.000000000000
      2477    1      148.641713570000      76.724999990000      50.000000000000
      2478    3      151.594860200000      75.019999990000      50.000000000000
      2479    1      148.641713570000      80.134999990000      50.000000000000
      2480    1      151.594860200000      78.429999990000      50.000000000000
      2481    2      141.751038110000      68.199999990000      50.000000000000
      2482    2      144.704184730000      69.904999990000      50.000000000000
      2483    2      141.751038110000      71.609999990000      50.000000000000
      2484    2      144.704184730000      73.314999990000      50.000000000000
      2485    2      141.751038110000      75.019999990000      50.000000000000
      2486    2      144.704184730000      76.724999990000      50.000000000000
      2487    2      141.751038110000      78.429999990000      50.000000000000
      2488    2      144.704184730000      80.134999990000      50.000000000000
      2489    2      147.657331360000      68.199999990000      50.000000000000
      2490    2      150.610477990000      69.904999990000      50.000000000000
      2491    2      147.657331360000      71.609999990000      50.000000000000
      2492    2      150.610477990000      73.314999990000      50.000000000000
      2493    2      147.657331360000      75.019999990000      50.000000000000
      2494    2      150.610477990000      76.724999990000      50.000000000000
      2495    2      147.657331360000      78.429999990000      50.000000000000
      2496    2      150.610477990000      80.134999990000      50.000000000000
      2497    1        0.984382200000      83.544999990000      50.000000000000
      2498    1        3.937528840000      81.839999990000      50.000000000000
      2499    1        0.984382200000      86.954999990000      50.000000000000
      2500    3        3.937528840000      85.249999990000      50.000000000000
      2501    1        0.984382200000      90.364999990000      50.000000000000
      2502    1        3.937528840000      88.659999980000      50.000000000000
      2503    1        0.984382200000      93.774999990000      50.000000000000
      2504    3        3.937528840000      92.069999990000      50.000000000000
      2505    1        6.890675460000      83.544999990000      50.000000000000
      2506    1        9.843822090000      81.839999990000      50.000000000000
      2507    1        6.890675460000      86.954999990000      50.000000000000
      2508    3        9.843822090000      85.249999990000      50.000000000000
      2509    1        6.890675460000      90.364999990000      50.000000000000
      2510    1        9.843822090000      88.659999980000      50.000000000000
      2511    1        6.890675460000      93.774999990000      50.000000000000
      2512    1        9.843822090000      92.069999990000      50.000000000000
      2513    2        0.000000000000      81.839999990000      50.000000000000
      2514    2        2.953146620000      83.544999990000      50.000000000000
      2515    2        0.000000000000      85.249999990000      50.000000000000
      2516    2        2.953146620000      86.954999990000      50.000000000000
      2517    2        0.000000000000      88.659999980000      50.000000000000
      2518    2        2.953146620000      90.364999990000      50.000000000000
      2519    2        0.000000000000      92.069999990000      50.000000000000
      2520    2        2.953146620000      93.774999990000      50.000000000000
      2521    2        5.906293250000      81.839999990000      50.000000000000
      2522    2        8.859439880000      83.544999990000      50.000000000000
      2523    2        5.906293250000      85.249999990000      50.000000000000
      2524    2        8.859439880000      86.954999990000      50.000000000000
      2525    2        5.906293250000      88.659999980000      50.000000000000
      2526    2        8.859439880000      90.364999990000      50.000000000000
      2527    2        5.906293250000      92.069999990000      50.000000000000
      2528    2        8.859439880000      93.774999990000      50.000000000000
      2529    1       12.796968710000      83.544999990000      50.000000000000
      2530    1       15.750115350000      81.839999990000      50.000000000000
      2531    1       12.796968710000      86.954999990000      50.000000000000
      2532    1       15.750115350000      85.249999990000      50.000000000000
      2533    3       12.796968710000      90.364999990000      50.000000000000
      2534    1       15.750115350000      88.659999980000      50.000000000000
      2535    1       12.796968710000      93.774999990000      50.000000000000
      2536    1       15.750115350000      92.069999990000      50.000000000000
      2537    1       18.703261970000      83.544999990000      50.000000000000
      2538    1       21.656408600000      81.839999990000      50.000000000000
      2539    1       18.703261970000      86.954999990000      50.000000000000
      2540    1       21.656408600000      85.249999990000      50.000000000000
      2541    1       18.703261970000      90.364999990000      50.000000000000
      2542    1       21.656408600000      88.659999980000      50.000000000000
      2543    1       18.703261970000      93.774999990000      50.000000000000
      2544    1       21.656408600000      92.069999990000      50.000000000000
      2545    2       11.812586510000      81.839999990000      50.000000000000
      2546    2       14.765733130000      83.544999990000      50.000000000000
      2547    2       11.812586510000      85.249999990000      50.000000000000
      2548    2       14.765733130000      86.954999990000      50.000000000000
      2549    2       11.812586510000      88.659999980000      50.000000000000
      2550    2       14.765733130000      90.364999990000      50.000000000000
      2551    2       11.812586510000      92.069999990000      50.000000000000
      2552    2       14.765733130000      93.774999990000      50.000000000000
      2553    2       17.718879760000      81.839999990000      50.000000000000
      2554    2       20.672026390000      83.544999990000      50.000000000000
      2555    2       17.718879760000      85.249999990000      50.000000000000
      2556    2       20.672026390000      86.954999990000      50.000000000000
      2557    2       17.718879760000      88.659999980000      50.000000000000
      2558    2       20.672026390000      90.364999990000      50.000000000000
      2559    2       17.718879760000      92.069999990000      50.000000000000
      2560    2       20.672026390000      93.774999990000      50.000000000000
      2561    1       24.609555220000      83.544999990000      50.000000000000
      2562    1       27.562701850000      81.839999990000      50.000000000000
      2563    1       24.609555220000      86.954999990000      50.000000000000
      2564    1       27.562701850000      85.249999990000      50.000000000000
      2565    1       24.609555220000      90.364999990000      50.000000000000
      2566    1       27.562701850000      88.659999980000      50.000000000000
      2567    1       24.609555220000      93.774999990000      50.000000000000
      2568    1       27.562701850000      92.069999990000      50.000000000000
      2569    1       30.515848480000      83.544999990000      50.000000000000
      2570    1       33.468995110000      81.839999990000      50.000000000000
      2571    1       30.515848480000      86.954999990000      50.000000000000
      2572    1       33.468995110000      85.249999990000      50.000000000000
      2573    1       30.515848480000      90.364999990000      50.000000000000
      2574    3       33.468995110000      88.659999980000      50.000000000000
      2575    1       30.515848480000      93.774999990000      50.000000000000
      2576    1       33.468995110000      92.069999990000      50.000000000000
      2577    2       23.625173020000      81.839999990000      50.000000000000
      2578    2       26.578319640000      83.544999990000      50.000000000000
      2579    2       23.625173020000      85.249999990000      50.000000000000
      2580    2       26.578319640000      86.954999990000      50.000000000000
      2581    2       23.625173020000      88.659999980000      50.000000000000
      2582    2       26.578319640000      90.364999990000      50.000000000000
      2583    2       23.625173020000      92.069999990000      50.000000000000
      2584    2       26.578319640000      93.774999990000      50.000000000000
      2585    2       29.531466270000      81.839999990000      50.000000000000
      2586    2       32.484612890000      83.544999990000      50.000000000000
      2587    2       29.531466270000      85.249999990000      50.000000000000
      2588    2       32.484612890000      86.954999990000      50.000000000000
      2589    2       29.531466270000      88.659999980000      50.000000000000
      2590    2       32.484612890000      90.364999990000      50.000000000000
      2591    2       29.531466270000      92.069999990000      50.000000000000
      2592    2       32.484612890000      93.774999990000      50.000000000000
      2593    1       36.422141730000      83.544999990000      50.000000000000
      2594    1       39.375288360000      81.839999990000      50.000000000000
      2595    1       36.422141730000      86.954999990000      50.000000000000
      2596    1       39.375288360000      85.249999990000      50.000000000000
      2597    3       36.422141730000      90.364999990000      50.000000000000
      2598    1       39.375288360000      88.659999980000      50.000000000000
      2599    1       36.422141730000      93.774999990000      50.000000000000
      2600    1       39.375288360000      92.069999990000      50.000000000000
      2601    1       42.328434990000      83.544999990000      50.000000000000
      2602    1       45.281581620000      81.839999990000      50.000000000000
      2603    1       42.328434990000      86.954999990000      50.000000000000
      2604    1       45.281581620000      85.249999990000      50.000000000000
      2605    1       42.328434990000      90.364999990000      50.000000000000
      2606    1       45.281581620000      88.659999980000      50.000000000000
      2607    3       42.328434990000      93.774999990000      50.000000000000
      2608    1       45.281581620000      92.069999990000      50.000000000000
      2609    2       35.437759530000      81.839999990000      50.000000000000
      2610    2       38.390906150000      83.544999990000      50.000000000000
      2611    2       35.437759530000      85.249999990000      50.000000000000
      2612    2       38.390906150000      86.954999990000      50.000000000000
      2613    2       35.437759530000      88.659999980000      50.000000000000
      2614    2       38.390906150000      90.364999990000      50.000000000000
      2615    2       35.437759530000      92.069999990000      50.000000000000
      2616    2       38.390906150000      93.774999990000      50.000000000000
      2617    2       41.344052780000      81.839999990000      50.000000000000
      2618    2       44.297199400000      83.544999990000      50.000000000000
      2619    2       41.344052780000      85.249999990000      50.000000000000
      2620    2       44.297199400000      86.954999990000      50.000000000000
      2621    2       41.344052780000      88.659999980000      50.000000000000
      2622    2       44.297199400000      90.364999990000      50.000000000000
      2623    2       41.344052780000      92.069999990000      50.000000000000
      2624    2       44.297199400000      93.774999990000      50.000000000000
      2625    1       48.234728240000      83.544999990000      50.000000000000
      2626    1       51.187874870000      81.839999990000      50.000000000000
      2627    1       48.234728240000      86.954999990000      50.000000000000
      2628    1       51.187874870000      85.249999990000      50.000000000000
      2629    3       48.234728240000      90.364999990000      50.000000000000
      2630    1       51.187874870000      88.659999980000      50.000000000000
      2631    1       48.234728240000      93.774999990000      50.000000000000
      2632    1       51.187874870000      92.069999990000      50.000000000000
      2633    1       54.141021490000      83.544999990000      50.000000000000
      2634    1       57.094168130000      81.839999990000      50.000000000000
      2635    1       54.141021490000      86.954999990000      50.000000000000
      2636    1       57.094168130000      85.249999990000      50.000000000000
      2637    1       54.141021490000      90.364999990000      50.000000000000
      2638    1       57.094168130000      88.659999980000      50.000000000000
      2639    3       54.141021490000      93.774999990000      50.000000000000
      2640    1       57.094168130000      92.069999990000      50.000000000000
      2641    2       47.250346040000      81.839999990000      50.000000000000
      2642    2       50.203492660000      83.544999990000      50.000000000000
      2643    2       47.250346040000      85.249999990000      50.000000000000
      2644    2       50.203492660000      86.954999990000      50.000000000000
      2645    2       47.250346040000      88.659999980000      50.000000000000
      2646    2       50.203492660000      90.364999990000      50.000000000000
      2647    2       47.250346040000      92.069999990000      50.000000000000
      2648    2       50.203492660000      93.774999990000      50.000000000000
      2649    2       53.156639290000      81.839999990000      50.000000000000
      2650    2       56.109785910000      83.544999990000      50.000000000000
      2651    2       53.156639290000      85.249999990000      50.000000000000
      2652    2       56.109785910000      86.954999990000      50.000000000000
      2653    2       53.156639290000      88.659999980000      50.000000000000
      2654    2       56.109785910000      90.364999990000      50.000000000000
      2655    2       53.156639290000      92.069999990000      50.000000000000
      2656    2       56.109785910000      93.774999990000      50.000000000000
      2657    1       60.047314750000      83.544999990000      50.000000000000
      2658    1       63.000461380000      81.839999990000      50.000000000000
      2659    1       60.047314750000      86.954999990000      50.000000000000
      2660    3       63.000461380000      85.249999990000      50.000000000000
      2661    1       60.047314750000      90.364999990000      50.000000000000
      2662    1       63.000461380000      88.659999980000      50.000000000000
      2663    1       60.047314750000      93.774999990000      50.000000000000
      2664    3       63.000461380000      92.069999990000      50.000000000000
      2665    1       65.953608000000      83.544999990000      50.000000000000
      2666    3       68.906754640000      81.839999990000      50.000000000000
      2667    1       65.953608000000      86.954999990000      50.000000000000
      2668    1       68.906754640000      85.249999990000      50.000000000000
      2669    1       65.953608000000      90.364999990000      50.000000000000
      2670    1       68.906754640000      88.659999980000      50.000000000000
      2671    1       65.953608000000      93.774999990000      50.000000000000
      2672    1       68.906754640000      92.069999990000      50.000000000000
      2673    2       59.062932550000      81.839999990000      50.000000000000
      2674    2       62.016079170000      83.544999990000      50.000000000000
      2675    2       59.062932550000      85.249999990000      50.000000000000
      2676    2       62.016079170000      86.954999990000      50.000000000000
      2677    2       59.062932550000      88.659999980000      50.000000000000
      2678    2       62.016079170000      90.364999990000      50.000000000000
      2679    2       59.062932550000      92.069999990000      50.000000000000
      2680    2       62.016079170000      93.774999990000      50.000000000000
      2681    2       64.969225800000      81.839999990000      50.000000000000
      2682    2       67.922372420000      83.544999990000      50.000000000000
      2683    2       64.969225800000      85.249999990000      50.000000000000
      2684    2       67.922372420000      86.954999990000      50.000000000000
      2685    2       64.969225800000      88.659999980000      50.000000000000
      2686    2       67.922372420000      90.364999990000      50.000000000000
      2687    2       64.969225800000      92.069999990000      50.000000000000
      2688    2       67.922372420000      93.774999990000      50.000000000000
      2689    1       71.859901260000      83.544999990000      50.000000000000
      2690    1       74.813047890000      81.839999990000      50.000000000000
      2691    1       71.859901260000      86.954999990000      50.000000000000
      2692    1       74.813047890000      85.249999990000      50.000000000000
      2693    1       71.859901260000      90.364999990000      50.000000000000
      2694    1       74.813047890000      88.659999980000      50.000000000000
      2695    3       71.859901260000      93.774999990000      50.000000000000
      2696    1       74.813047890000      92.069999990000      50.000000000000
      2697    1       77.766194510000      83.544999990000      50.000000000000
      2698    1       80.719341150000      81.839999990000      50.000000000000
      2699    3       77.766194510000      86.954999990000      50.000000000000
      2700    1       80.719341150000      85.249999990000      50.000000000000
      2701    1       77.766194510000      90.364999990000      50.000000000000
      2702    1       80.719341150000      88.659999980000      50.000000000000
      2703    1       77.766194510000      93.774999990000      50.000000000000
      2704    1       80.719341150000      92.069999990000      50.000000000000
      2705    2       70.875519050000      81.839999990000      50.000000000000
      2706    2       73.828665680000      83.544999990000      50.000000000000
      2707    2       70.875519050000      85.249999990000      50.000000000000
      2708    2       73.828665680000      86.954999990000      50.000000000000
      2709    2       70.875519050000      88.659999980000      50.000000000000
      2710    2       73.828665680000      90.364999990000      50.000000000000
      2711    2       70.875519050000      92.069999990000      50.000000000000
      2712    2       73.828665680000      93.774999990000      50.000000000000
      2713    2       76.781812310000      81.839999990000      50.000000000000
      2714    2       79.734958930000      83.544999990000      50.000000000000
      2715    2       76.781812310000      85.249999990000      50.000000000000
      2716    2       79.734958930000      86.954999990000      50.000000000000
      2717    2       76.781812310000      88.659999980000      50.000000000000
      2718    2       79.734958930000      90.364999990000      50.000000000000
      2719    2       76.781812310000      92.069999990000      50.000000000000
      2720    2       79.734958930000      93.774999990000      50.000000000000
      2721    1       83.672487770000      83.544999990000      50.000000000000
      2722    3       86.625634400000      81.839999990000      50.000000000000
      2723    1       83.672487770000      86.954999990000      50.000000000000
      2724    1       86.625634400000      85.249999990000      50.000000000000
      2725    1       83.672487770000      90.364999990000      50.000000000000
      2726    1       86.625634400000      88.659999980000      50.000000000000
      2727    1       83.672487770000      93.774999990000      50.000000000000
      2728    1       86.625634400000      92.069999990000      50.000000000000
      2729    1       89.578781020000      83.544999990000      50.000000000000
      2730    1       92.531927650000      81.839999990000      50.000000000000
      2731    1       89.578781020000      86.954999990000      50.000000000000
      2732    1       92.531927650000      85.249999990000      50.000000000000
      2733    1       89.578781020000      90.364999990000      50.000000000000
      2734    1       92.531927650000      88.659999980000      50.000000000000
      2735    3       89.578781020000      93.774999990000      50.000000000000
      2736    3       92.531927650000      92.069999990000      50.000000000000
      2737    2       82.688105560000      81.839999990000      50.000000000000
      2738    2       85.641252190000      83.544999990000      50.000000000000
      2739    2       82.688105560000      85.249999990000      50.000000000000
      2740    2       85.641252190000      86.954999990000      50.000000000000
      2741    2       82.688105560000      88.659999980000      50.000000000000
      2742    2       85.641252190000      90.364999990000      50.000000000000
      2743    2       82.688105560000      92.069999990000      50.000000000000
      2744    2       85.641252190000      93.774999990000      50.000000000000
      2745    2       88.594398820000      81.839999990000      50.000000000000
      2746    2       91.547545440000      83.544999990000      50.000000000000
      2747    2       88.594398820000      85.249999990000      50.000000000000
      2748    2       91.547545440000      86.954999990000      50.000000000000
      2749    2       88.594398820000      88.659999980000      50.000000000000
      2750    2       91.547545440000      90.364999990000      50.000000000000
      2751    2       88.594398820000      92.069999990000      50.000000000000
      2752    2       91.547545440000      93.774999990000      50.000000000000
      2753    1       95.485074280000      83.544999990000      50.000000000000
      2754    1       98.438220910000      81.839999990000      50.000000000000
      2755    3       95.485074280000      86.954999990000      50.000000000000
      2756    3       98.438220910000      85.249999990000      50.000000000000
      2757    1       95.485074280000      90.364999990000      50.000000000000
      2758    3       98.438220910000      88.659999980000      50.000000000000
      2759    1       95.485074280000      93.774999990000      50.000000000000
      2760    1       98.438220910000      92.069999990000      50.000000000000
      2761    1      101.391367530000      83.544999990000      50.000000000000
      2762    1      104.344514160000      81.839999990000      50.000000000000
      2763    1      101.391367530000      86.954999990000      50.000000000000
      2764    1      104.344514160000      85.249999990000      50.000000000000
      2765    1      101.391367530000      90.364999990000      50.000000000000
      2766    3      104.344514160000      88.659999980000      50.000000000000
      2767    1      101.391367530000      93.774999990000      50.000000000000
      2768    1      104.344514160000      92.069999990000      50.000000000000
      2769    2       94.500692070000      81.839999990000      50.000000000000
      2770    2       97.453838690000      83.544999990000      50.000000000000
      2771    2       94.500692070000      85.249999990000      50.000000000000
      2772    2       97.453838690000      86.954999990000      50.000000000000
      2773    2       94.500692070000      88.659999980000      50.000000000000
      2774    2       97.453838690000      90.364999990000      50.000000000000
      2775    2       94.500692070000      92.069999990000      50.000000000000
      2776    2       97.453838690000      93.774999990000      50.000000000000
      2777    2      100.406985330000      81.839999990000      50.000000000000
      2778    2      103.360131950000      83.544999990000      50.000000000000
      2779    2      100.406985330000      85.249999990000      50.000000000000
      2780    2      103.360131950000      86.954999990000      50.000000000000
      2781    2      100.406985330000      88.659999980000      50.000000000000
      2782    2      103.360131950000      90.364999990000      50.000000000000
      2783    2      100.406985330000      92.069999990000      50.000000000000
      2784    2      103.360131950000      93.774999990000      50.000000000000
      2785    1      107.297660790000      83.544999990000      50.000000000000
      2786    1      110.250807420000      81.839999990000      50.000000000000
      2787    1      107.297660790000      86.954999990000      50.000000000000
      2788    1      110.250807420000      85.249999990000      50.000000000000
      2789    1      107.297660790000      90.364999990000      50.000000000000
      2790    1      110.250807420000      88.659999980000      50.000000000000
      2791    1      107.297660790000      93.774999990000      50.000000000000
      2792    1      110.250807420000      92.069999990000      50.000000000000
      2793    1      113.203954040000      83.544999990000      50.000000000000
      2794    3      116.157100670000      81.839999990000      50.000000000000
      2795    1      113.203954040000      86.954999990000      50.000000000000
      2796    1      116.157100670000      85.249999990000      50.000000000000
      2797    3      113.203954040000      90.364999990000      50.000000000000
      2798    1      116.157100670000      88.659999980000      50.000000000000
      2799    1      113.203954040000      93.774999990000      50.000000000000
      2800    3      116.157100670000      92.069999990000      50.000000000000
      2801    2      106.313278580000      81.839999990000      50.000000000000
      2802    2      109.266425200000      83.544999990000      50.000000000000
      2803    2      106.313278580000      85.249999990000      50.000000000000
      2804    2      109.266425200000      86.954999990000      50.000000000000
      2805    2      106.313278580000      88.659999980000      50.000000000000
      2806    2      109.266425200000      90.364999990000      50.000000000000
      2807    2      106.313278580000      92.069999990000      50.000000000000
      2808    2      109.266425200000      93.774999990000      50.000000000000
      2809    2      112.219571840000      81.839999990000      50.000000000000
      2810    2      115.172718460000      83.544999990000      50.000000000000
      2811    2      112.219571840000      85.249999990000      50.000000000000
      2812    2      115.172718460000      86.954999990000      50.000000000000
      2813    2      112.219571840000      88.659999980000      50.000000000000
      2814    2      115.172718460000      90.364999990000      50.000000000000
      2815    2      112.219571840000      92.069999990000      50.000000000000
      2816    2      115.172718460000      93.774999990000      50.000000000000
      2817    1      119.110247290000      83.544999990000      50.000000000000
      2818    1      122.063393930000      81.839999990000      50.000000000000
      2819    1      119.110247290000      86.954999990000      50.000000000000
      2820    1      122.063393930000      85.249999990000      50.000000000000
      2821    1      119.110247290000      90.364999990000      50.000000000000
      2822    1      122.063393930000      88.659999980000      50.000000000000
      2823    1      119.110247290000      93.774999990000      50.000000000000
      2824    1      122.063393930000      92.069999990000      50.000000000000
      2825    3      125.016540550000      83.544999990000      50.000000000000
      2826    3      127.969687180000      81.839999990000      50.000000000000
      2827    1      125.016540550000      86.954999990000      50.000000000000
      2828    1      127.969687180000      85.249999990000      50.000000000000
      2829    1      125.016540550000      90.364999990000      50.000000000000
      2830    1      127.969687180000      88.659999980000      50.000000000000
      2831    1      125.016540550000      93.774999990000      50.000000000000
      2832    1      127.969687180000      92.069999990000      50.000000000000
      2833    2      118.125865090000      81.839999990000      50.000000000000
      2834    2      121.079011710000      83.544999990000      50.000000000000
      2835    2      118.125865090000      85.249999990000      50.000000000000
      2836    2      121.079011710000      86.954999990000      50.000000000000
      2837    2      118.125865090000      88.659999980000      50.000000000000
      2838    2      121.079011710000      90.364999990000      50.000000000000
      2839    2      118.125865090000      92.069999990000      50.000000000000
      2840    2      121.079011710000      93.774999990000      50.000000000000
      2841    2      124.032158350000      81.839999990000      50.000000000000
      2842    2      126.985304970000      83.544999990000      50.000000000000
      2843    2      124.032158350000      85.249999990000      50.000000000000
      2844    2      126.985304970000      86.954999990000      50.000000000000
      2845    2      124.032158350000      88.659999980000      50.000000000000
      2846    2      126.985304970000      90.364999990000      50.000000000000
      2847    2      124.032158350000      92.069999990000      50.000000000000
      2848    2      126.985304970000      93.774999990000      50.000000000000
      2849    1      130.922833800000      83.544999990000      50.000000000000
      2850    1      133.875980440000      81.839999990000      50.000000000000
      2851    1      130.922833800000      86.954999990000      50.000000000000
      2852    1      133.875980440000      85.249999990000      50.000000000000
      2853    1      130.922833800000      90.364999990000      50.000000000000
      2854    1      133.875980440000      88.659999980000      50.000000000000
      2855    1      130.922833800000      93.774999990000      50.000000000000
      2856    1      133.875980440000      92.069999990000      50.000000000000
      2857    3      136.829127060000      83.544999990000      50.000000000000
      2858    3      139.782273690000      81.839999990000      50.000000000000
      2859    1      136.829127060000      86.954999990000      50.000000000000
      2860    1      139.782273690000      85.249999990000      50.000000000000
      2861    1      136.829127060000      90.364999990000      50.000000000000
      2862    1      139.782273690000      88.659999980000      50.000000000000
      2863    1      136.829127060000      93.774999990000      50.000000000000
      2864    1      139.782273690000      92.069999990000      50.000000000000
      2865    2      129.938451600000      81.839999990000      50.000000000000
      2866    2      132.891598220000      83.544999990000      50.000000000000
      2867    2      129.938451600000      85.249999990000      50.000000000000
      2868    2      132.891598220000      86.954999990000      50.000000000000
      2869    2      129.938451600000      88.659999980000      50.000000000000
      2870    2      132.891598220000      90.364999990000      50.000000000000
      2871    2      129.938451600000      92.069999990000      50.000000000000
      2872    2      132.891598220000      93.774999990000      50.000000000000
      2873    2      135.844744850000      81.839999990000      50.000000000000
      2874    2      138.797891480000      83.544999990000      50.000000000000
      2875    2      135.844744850000      85.249999990000      50.000000000000
      2876    2      138.797891480000      86.954999990000      50.000000000000
      2877    2      135.844744850000      88.659999980000      50.000000000000
      2878    2      138.797891480000      90.364999990000      50.000000000000
      2879    2      135.844744850000      92.069999990000      50.000000000000
      2880    2      138.797891480000      93.774999990000      50.000000000000
      2881    1      142.735420310000      83.544999990000      50.000000000000
      2882    1      145.688566950000      81.839999990000      50.000000000000
      2883    1      142.735420310000      86.954999990000      50.000000000000
      2884    1      145.688566950000      85.249999990000      50.000000000000
      2885    1      142.735420310000      90.364999990000      50.000000000000
      2886    1      145.688566950000      88.659999980000      50.000000000000
      2887    1      142.735420310000      93.774999990000      50.000000000000
      2888    1      145.688566950000      92.069999990000      50.000000000000
      2889    1      148.641713570000      83.544999990000      50.000000000000
      2890    1      151.594860200000      81.839999990000      50.000000000000
      2891    3      148.641713570000      86.954999990000      50.000000000000
      2892    1      151.594860200000      85.249999990000      50.000000000000
      2893    1      148.641713570000      90.364999990000      50.000000000000
      2894    1      151.594860200000      88.659999980000      50.000000000000
      2895    1      148.641713570000      93.774999990000      50.000000000000
      2896    1      151.594860200000      92.069999990000      50.000000000000
      2897    2      141.751038110000      81.839999990000      50.000000000000
      2898    2      144.704184730000      83.544999990000      50.000000000000
      2899    2      141.751038110000      85.249999990000      50.000000000000
      2900    2      144.704184730000      86.954999990000      50.000000000000
      2901    2      141.751038110000      88.659999980000      50.000000000000
      2902    2      144.704184730000      90.364999990000      50.000000000000
      2903    2      141.751038110000      92.069999990000      50.000000000000
      2904    2      144.704184730000      93.774999990000      50.000000000000
      2905    2      147.657331360000      81.839999990000      50.000000000000
      2906    2      150.610477990000      83.544999990000      50.000000000000
      2907    2      147.657331360000      85.249999990000      50.000000000000
      2908    2      150.610477990000      86.954999990000      50.000000000000
      2909    2      147.657331360000      88.659999980000      50.000000000000
      2910    2      150.610477990000      90.364999990000      50.000000000000
      2911    2      147.657331360000      92.069999990000      50.000000000000
      2912    2      150.610477990000      93.774999990000      50.000000000000
      2913    1        0.984382200000      97.184999980000      50.000000000000
      2914    3        3.937528840000      95.479999990000      50.000000000000
      2915    1        0.984382200000     100.594999990000      50.000000000000
      2916    1        3.937528840000      98.889999990000      50.000000000000
      2917    1        0.984382200000     104.004999990000      50.000000000000
      2918    1        3.937528840000     102.299999980000      50.000000000000
      2919    1        0.984382200000     107.414999990000      50.000000000000
      2920    3        3.937528840000     105.709999980000      50.000000000000
      2921    1        6.890675460000      97.184999980000      50.000000000000
      2922    1        9.843822090000      95.479999990000      50.000000000000
      2923    1        6.890675460000     100.594999990000      50.000000000000
      2924    1        9.843822090000      98.889999990000      50.000000000000
      2925    1        6.890675460000     104.004999990000      50.000000000000
      2926    3        9.843822090000     102.299999980000      50.000000000000
      2927    1        6.890675460000     107.414999990000      50.000000000000
      2928    1        9.843822090000     105.709999980000      50.000000000000
      2929    2        0.000000000000      95.479999990000      50.000000000000
      2930    2        2.953146620000      97.184999980000      50.000000000000
      2931    2        0.000000000000      98.889999990000      50.000000000000
      2932    2        2.953146620000     100.594999990000      50.000000000000
      2933    2        0.000000000000     102.299999980000      50.000000000000
      2934    2        2.953146620000     104.004999990000      50.000000000000
      2935    2        0.000000000000     105.709999980000      50.000000000000
      2936    2        2.953146620000     107.414999990000      50.000000000000
      2937    2        5.906293250000      95.479999990000      50.000000000000
      2938    2        8.859439880000      97.184999980000      50.000000000000
      2939    2        5.906293250000      98.889999990000      50.000000000000
      2940    2        8.859439880000     100.594999990000      50.000000000000
      2941    2        5.906293250000     102.299999980000      50.000000000000
      2942    2        8.859439880000     104.004999990000      50.000000000000
      2943    2        5.906293250000     105.709999980000      50.000000000000
      2944    2        8.859439880000     107.414999990000      50.000000000000
      2945    1       12.796968710000      97.184999980000      50.000000000000
      2946    1       15.750115350000      95.479999990000      50.000000000000
      2947    1       12.796968710000     100.594999990000      50.000000000000
      2948    1       15.750115350000      98.889999990000      50.000000000000
      2949    1       12.796968710000     104.004999990000      50.000000000000
      2950    3       15.750115350000     102.299999980000      50.000000000000
      2951    1       12.796968710000     107.414999990000      50.000000000000
      2952    1       15.750115350000     105.709999980000      50.000000000000
      2953    1       18.703261970000      97.184999980000      50.000000000000
      2954    3       21.656408600000      95.479999990000      50.000000000000
      2955    1       18.703261970000     100.594999990000      50.000000000000
      2956    3       21.656408600000      98.889999990000      50.000000000000
      2957    1       18.703261970000     104.004999990000      50.000000000000
      2958    1       21.656408600000     102.299999980000      50.000000000000
      2959    1       18.703261970000     107.414999990000      50.000000000000
      2960    1       21.656408600000     105.709999980000      50.000000000000
      2961    2       11.812586510000      95.479999990000      50.000000000000
      2962    2       14.765733130000      97.184999980000      50.000000000000
      2963    2       11.812586510000      98.889999990000      50.000000000000
      2964    2       14.765733130000     100.594999990000      50.000000000000
      2965    2       11.812586510000     102.299999980000      50.000000000000
      2966    2       14.765733130000     104.004999990000      50.000000000000
      2967    2       11.812586510000     105.709999980000      50.000000000000
      2968    2       14.765733130000     107.414999990000      50.000000000000
      2969    2       17.718879760000      95.479999990000      50.000000000000
      2970    2       20.672026390000      97.184999980000      50.000000000000
      2971    2       17.718879760000      98.889999990000      50.000000000000
      2972    2       20.672026390000     100.594999990000      50.000000000000
      2973    2       17.718879760000     102.299999980000      50.000000000000
      2974    2       20.672026390000     104.004999990000      50.000000000000
      2975    2       17.718879760000     105.709999980000      50.000000000000
      2976    2       20.672026390000     107.414999990000      50.000000000000
      2977    3       24.609555220000      97.184999980000      50.000000000000
      2978    1       27.562701850000      95.479999990000      50.000000000000
      2979    1       24.609555220000     100.594999990000      50.000000000000
      2980    1       27.562701850000      98.889999990000      50.000000000000
      2981    1       24.609555220000     104.004999990000      50.000000000000
      2982    3       27.562701850000     102.299999980000      50.000000000000
      2983    3       24.609555220000     107.414999990000      50.000000000000
      2984    1       27.562701850000     105.709999980000      50.000000000000
      2985    1       30.515848480000      97.184999980000      50.000000000000
      2986    3       33.468995110000      95.479999990000      50.000000000000
      2987    1       30.515848480000     100.594999990000      50.000000000000
      2988    1       33.468995110000      98.889999990000      50.000000000000
      2989    1       30.515848480000     104.004999990000      50.000000000000
      2990    1       33.468995110000     102.299999980000      50.000000000000
      2991    1       30.515848480000     107.414999990000      50.000000000000
      2992    1       33.468995110000     105.709999980000      50.000000000000
      2993    2       23.625173020000      95.479999990000      50.000000000000
      2994    2       26.578319640000      97.184999980000      50.000000000000
      2995    2       23.625173020000      98.889999990000      50.000000000000
      2996    2       26.578319640000     100.594999990000      50.000000000000
      2997    2       23.625173020000     102.299999980000      50.000000000000
      2998    2       26.578319640000     104.004999990000      50.000000000000
      2999    2       23.625173020000     105.709999980000      50.000000000000
      3000    2       26.578319640000     107.414999990000      50.000000000000
      3001    2       29.531466270000      95.479999990000      50.000000000000
      3002    2       32.484612890000      97.184999980000      50.000000000000
      3003    2       29.531466270000      98.889999990000      50.000000000000
      3004    2       32.484612890000     100.594999990000      50.000000000000
      3005    2       29.531466270000     102.299999980000      50.000000000000
      3006    2       32.484612890000     104.004999990000      50.000000000000
      3007    2       29.531466270000     105.709999980000      50.000000000000
      3008    2       32.484612890000     107.414999990000      50.000000000000
      3009    1       36.422141730000      97.184999980000      50.000000000000
      3010    1       39.375288360000      95.479999990000      50.000000000000
      3011    1       36.422141730000     100.594999990000      50.000000000000
      3012    1       39.375288360000      98.889999990000      50.000000000000
      3013    1       36.422141730000     104.004999990000      50.000000000000
      3014    1       39.375288360000     102.299999980000      50.000000000000
      3015    1       36.422141730000     107.414999990000      50.000000000000
      3016    1       39.375288360000     105.709999980000      50.000000000000
      3017    1       42.328434990000      97.184999980000      50.000000000000
      3018    1       45.281581620000      95.479999990000      50.000000000000
      3019    1       42.328434990000     100.594999990000      50.000000000000
      3020    1       45.281581620000      98.889999990000      50.000000000000
      3021    1       42.328434990000     104.004999990000      50.000000000000
      3022    1       45.281581620000     102.299999980000      50.000000000000
      3023    1       42.328434990000     107.414999990000      50.000000000000
      3024    1       45.281581620000     105.709999980000      50.000000000000
      3025    2       35.437759530000      95.479999990000      50.000000000000
      3026    2       38.390906150000      97.184999980000      50.000000000000
      3027    2       35.437759530000      98.889999990000      50.000000000000
      3028    2       38.390906150000     100.594999990000      50.000000000000
      3029    2       35.437759530000     102.299999980000      50.000000000000
      3030    2       38.390906150000     104.004999990000      50.000000000000
      3031    2       35.437759530000     105.709999980000      50.000000000000
      3032    2       38.390906150000     107.414999990000      50.000000000000
      3033    2       41.344052780000      95.479999990000      50.000000000000
      3034    2       44.297199400000      97.184999980000      50.000000000000
      3035    2       41.344052780000      98.889999990000      50.000000000000
      3036    2       44.297199400000     100.594999990000      50.000000000000
      3037    2       41.344052780000     102.299999980000      50.000000000000
      3038    2       44.297199400000     104.004999990000      50.000000000000
      3039    2       41.344052780000     105.709999980000      50.000000000000
      3040    2       44.297199400000     107.414999990000      50.000000000000
      3041    1       48.234728240000      97.184999980000      50.000000000000
      3042    1       51.187874870000      95.479999990000      50.000000000000
      3043    1       48.234728240000     100.594999990000      50.000000000000
      3044    1       51.187874870000      98.889999990000      50.000000000000
      3045    1       48.234728240000     104.004999990000      50.000000000000
      3046    1       51.187874870000     102.299999980000      50.000000000000
      3047    1       48.234728240000     107.414999990000      50.000000000000
      3048    1       51.187874870000     105.709999980000      50.000000000000
      3049    1       54.141021490000      97.184999980000      50.000000000000
      3050    3       57.094168130000      95.479999990000      50.000000000000
      3051    1       54.141021490000     100.594999990000      50.000000000000
      3052    1       57.094168130000      98.889999990000      50.000000000000
      3053    1       54.141021490000     104.004999990000      50.000000000000
      3054    3       57.094168130000     102.299999980000      50.000000000000
      3055    1       54.141021490000     107.414999990000      50.000000000000
      3056    1       57.094168130000     105.709999980000      50.000000000000
      3057    2       47.250346040000      95.479999990000      50.000000000000
      3058    2       50.203492660000      97.184999980000      50.000000000000
      3059    2       47.250346040000      98.889999990000      50.000000000000
      3060    2       50.203492660000     100.594999990000      50.000000000000
      3061    2       47.250346040000     102.299999980000      50.000000000000
      3062    2       50.203492660000     104.004999990000      50.000000000000
      3063    2       47.250346040000     105.709999980000      50.000000000000
      3064    2       50.203492660000     107.414999990000      50.000000000000
      3065    2       53.156639290000      95.479999990000      50.000000000000
      3066    2       56.109785910000      97.184999980000      50.000000000000
      3067    2       53.156639290000      98.889999990000      50.000000000000
      3068    2       56.109785910000     100.594999990000      50.000000000000
      3069    2       53.156639290000     102.299999980000      50.000000000000
      3070    2       56.109785910000     104.004999990000      50.000000000000
      3071    2       53.156639290000     105.709999980000      50.000000000000
      3072    2       56.109785910000     107.414999990000      50.000000000000
      3073    1       60.047314750000      97.184999980000      50.000000000000
      3074    1       63.000461380000      95.479999990000      50.000000000000
      3075    1       60.047314750000     100.594999990000      50.000000000000
      3076    1       63.000461380000      98.889999990000      50.000000000000
      3077    1       60.047314750000     104.004999990000      50.000000000000
      3078    1       63.000461380000     102.299999980000      50.000000000000
      3079    1       60.047314750000     107.414999990000      50.000000000000
      3080    1       63.000461380000     105.709999980000      50.000000000000
      3081    3       65.953608000000      97.184999980000      50.000000000000
      3082    1       68.906754640000      95.479999990000      50.000000000000
      3083    1       65.953608000000     100.594999990000      50.000000000000
      3084    1       68.906754640000      98.889999990000      50.000000000000
      3085    1       65.953608000000     104.004999990000      50.000000000000
      3086    1       68.906754640000     102.299999980000      50.000000000000
      3087    1       65.953608000000     107.414999990000      50.000000000000
      3088    3       68.906754640000     105.709999980000      50.000000000000
      3089    2       59.062932550000      95.479999990000      50.000000000000
      3090    2       62.016079170000      97.184999980000      50.000000000000
      3091    2       59.062932550000      98.889999990000      50.000000000000
      3092    2       62.016079170000     100.594999990000      50.000000000000
      3093    2       59.062932550000     102.299999980000      50.000000000000
      3094    2       62.016079170000     104.004999990000      50.000000000000
      3095    2       59.062932550000     105.709999980000      50.000000000000
      3096    2       62.016079170000     107.414999990000      50.000000000000
      3097    2       64.969225800000      95.479999990000      50.000000000000
      3098    2       67.922372420000      97.184999980000      50.000000000000
      3099    2       64.969225800000      98.889999990000      50.000000000000
      3100    2       67.922372420000     100.594999990000      50.000000000000
      3101    2       64.969225800000     102.299999980000      50.000000000000
      3102    2       67.922372420000     104.004999990000      50.000000000000
      3103    2       64.969225800000     105.709999980000      50.000000000000
      3104    2       67.922372420000     107.414999990000      50.000000000000
      3105    1       71.859901260000      97.184999980000      50.000000000000
      3106    1       74.813047890000      95.479999990000      50.000000000000
      3107    1       71.859901260000     100.594999990000      50.000000000000
      3108    1       74.813047890000      98.889999990000      50.000000000000
      3109    1       71.859901260000     104.004999990000      50.000000000000
      3110    1       74.813047890000     102.299999980000      50.000000000000
      3111    1       71.859901260000     107.414999990000      50.000000000000
      3112    1       74.813047890000     105.709999980000      50.000000000000
      3113    1       77.766194510000      97.184999980000      50.000000000000
      3114    1       80.719341150000      95.479999990000      50.000000000000
      3115    1       77.766194510000     100.594999990000      50.000000000000
      3116    1       80.719341150000      98.889999990000      50.000000000000
      3117    1       77.766194510000     104.004999990000      50.000000000000
      3118    1       80.719341150000     102.299999980000      50.000000000000
      3119    1       77.766194510000     107.414999990000      50.000000000000
      3120    1       80.719341150000     105.709999980000      50.000000000000
      3121    2       70.875519050000      95.479999990000      50.000000000000
      3122    2       73.828665680000      97.184999980000      50.000000000000
      3123    2       70.875519050000      98.889999990000      50.000000000000
      3124    2       73.828665680000     100.594999990000      50.000000000000
      3125    2       70.875519050000     102.299999980000      50.000000000000
      3126    2       73.828665680000     104.004999990000      50.000000000000
      3127    2       70.875519050000     105.709999980000      50.000000000000
      3128    2       73.828665680000     107.414999990000      50.000000000000
      3129    2       76.781812310000      95.479999990000      50.000000000000
      3130    2       79.734958930000      97.184999980000      50.000000000000
      3131    2       76.781812310000      98.889999990000      50.000000000000
      3132    2       79.734958930000     100.594999990000      50.000000000000
      3133    2       76.781812310000     102.299999980000      50.000000000000
      3134    2       79.734958930000     104.004999990000      50.000000000000
      3135    2       76.781812310000     105.709999980000      50.000000000000
      3136    2       79.734958930000     107.414999990000      50.000000000000
      3137    1       83.672487770000      97.184999980000      50.000000000000
      3138    1       86.625634400000      95.479999990000      50.000000000000
      3139    1       83.672487770000     100.594999990000      50.000000000000
      3140    1       86.625634400000      98.889999990000      50.000000000000
      3141    1       83.672487770000     104.004999990000      50.000000000000
      3142    1       86.625634400000     102.299999980000      50.000000000000
      3143    1       83.672487770000     107.414999990000      50.000000000000
      3144    1       86.625634400000     105.709999980000      50.000000000000
      3145    1       89.578781020000      97.184999980000      50.000000000000
      3146    3       92.531927650000      95.479999990000      50.000000000000
      3147    3       89.578781020000     100.594999990000      50.000000000000
      3148    1       92.531927650000      98.889999990000      50.000000000000
      3149    1       89.578781020000     104.004999990000      50.000000000000
      3150    1       92.531927650000     102.299999980000      50.000000000000
      3151    1       89.578781020000     107.414999990000      50.000000000000
      3152    1       92.531927650000     105.709999980000      50.000000000000
      3153    2       82.688105560000      95.479999990000      50.000000000000
      3154    2       85.641252190000      97.184999980000      50.000000000000
      3155    2       82.688105560000      98.889999990000      50.000000000000
      3156    2       85.641252190000     100.594999990000      50.000000000000
      3157    2       82.688105560000     102.299999980000      50.000000000000
      3158    2       85.641252190000     104.004999990000      50.000000000000
      3159    2       82.688105560000     105.709999980000      50.000000000000
      3160    2       85.641252190000     107.414999990000      50.000000000000
      3161    2       88.594398820000      95.479999990000      50.000000000000
      3162    2       91.547545440000      97.184999980000      50.000000000000
      3163    2       88.594398820000      98.889999990000      50.000000000000
      3164    2       91.547545440000     100.594999990000      50.000000000000
      3165    2       88.594398820000     102.299999980000      50.000000000000
      3166    2       91.547545440000     104.004999990000      50.000000000000
      3167    2       88.594398820000     105.709999980000      50.000000000000
      3168    2       91.547545440000     107.414999990000      50.000000000000
      3169    1       95.485074280000      97.184999980000      50.000000000000
      3170    1       98.438220910000      95.479999990000      50.000000000000
      3171    1       95.485074280000     100.594999990000      50.000000000000
      3172    1       98.438220910000      98.889999990000      50.000000000000
      3173    1       95.485074280000     104.004999990000      50.000000000000
      3174    1       98.438220910000     102.299999980000      50.000000000000
      3175    1       95.485074280000     107.414999990000      50.000000000000
      3176    1       98.438220910000     105.709999980000      50.000000000000
      3177    1      101.391367530000      97.184999980000      50.000000000000
      3178    1      104.344514160000      95.479999990000      50.000000000000
      3179    1      101.391367530000     100.594999990000      50.000000000000
      3180    1      104.344514160000      98.889999990000      50.000000000000
      3181    1      101.391367530000     104.004999990000      50.000000000000
      3182    1      104.344514160000     102.299999980000      50.000000000000
      3183    1      101.391367530000     107.414999990000      50.000000000000
      3184    1      104.344514160000     105.709999980000      50.000000000000
      3185    2       94.500692070000      95.479999990000      50.000000000000
      3186    2       97.453838690000      97.184999980000      50.000000000000
      3187    2       94.500692070000      98.889999990000      50.000000000000
      3188    2       97.453838690000     100.594999990000      50.000000000000
      3189    2       94.500692070000     102.299999980000      50.000000000000
      3190    2       97.453838690000     104.004999990000      50.000000000000
      3191    2       94.500692070000     105.709999980000      50.000000000000
      3192    2       97.453838690000     107.414999990000      50.000000000000
      3193    2      100.406985330000      95.479999990000      50.000000000000
      3194    2      103.360131950000      97.184999980000      50.000000000000
      3195    2      100.406985330000      98.889999990000      50.000000000000
      3196    2      103.360131950000     100.594999990000      50.000000000000
      3197    2      100.406985330000     102.299999980000      50.000000000000
      3198    2      103.360131950000     104.004999990000      50.000000000000
      3199    2      100.406985330000     105.709999980000      50.000000000000
      3200    2      103.360131950000     107.414999990000      50.000000000000
      3201    3      107.297660790000      97.184999980000      50.000000000000
      3202    3      110.250807420000      95.479999990000      50.000000000000
      3203    1      107.297660790000     100.594999990000      50.000000000000
      3204    3      110.250807420000      98.889999990000      50.000000000000
      3205    1      107.297660790000     104.004999990000      50.000000000000
      3206    1      110.250807420000     102.299999980000      50.000000000000
      3207    1      107.297660790000     107.414999990000      50.000000000000
      3208    1      110.250807420000     105.709999980000      50.000000000000
      3209    1      113.203954040000      97.184999980000      50.000000000000
      3210    1      116.157100670000      95.479999990000      50.000000000000
      3211    1      113.203954040000     100.594999990000      50.000000000000
      3212    1      116.157100670000      98.889999990000      50.000000000000
      3213    1      113.203954040000     104.004999990000      50.000000000000
      3214    1      116.157100670000     102.299999980000      50.000000000000
      3215    1      113.203954040000     107.414999990000      50.000000000000
      3216    1      116.157100670000     105.709999980000      50.000000000000
      3217    2      106.313278580000      95.479999990000      50.000000000000
      3218    2      109.266425200000      97.184999980000      50.000000000000
      3219    2      106.313278580000      98.889999990000      50.000000000000
      3220    2      109.266425200000     100.594999990000      50.000000000000
      3221    2      106.313278580000     102.299999980000      50.000000000000
      3222    2      109.266425200000     104.004999990000      50.000000000000
      3223    2      106.313278580000     105.709999980000      50.000000000000
      3224    2      109.266425200000     107.414999990000      50.000000000000
      3225    2      112.219571840000      95.479999990000      50.000000000000
      3226    2      115.172718460000      97.184999980000      50.000000000000
      3227    2      112.219571840000      98.889999990000      50.000000000000
      3228    2      115.172718460000     100.594999990000      50.000000000000
      3229    2      112.219571840000     102.299999980000      50.000000000000
      3230    2      115.172718460000     104.004999990000      50.000000000000
      3231    2      112.219571840000     105.709999980000      50.000000000000
      3232    2      115.172718460000     107.414999990000      50.000000000000
      3233    1      119.110247290000      97.184999980000      50.000000000000
      3234    1      122.063393930000      95.479999990000      50.000000000000
      3235    1      119.110247290000     100.594999990000      50.000000000000
      3236    1      122.063393930000      98.889999990000      50.000000000000
      3237    1      119.110247290000     104.004999990000      50.000000000000
      3238    1      122.063393930000     102.299999980000      50.000000000000
      3239    1      119.110247290000     107.414999990000      50.000000000000
      3240    1      122.063393930000     105.709999980000      50.000000000000
      3241    1      125.016540550000      97.184999980000      50.000000000000
      3242    1      127.969687180000      95.479999990000      50.000000000000
      3243    1      125.016540550000     100.594999990000      50.000000000000
      3244    1      127.969687180000      98.889999990000      50.000000000000
      3245    1      125.016540550000     104.004999990000      50.000000000000
      3246    1      127.969687180000     102.299999980000      50.000000000000
      3247    1      125.016540550000     107.414999990000      50.000000000000
      3248    1      127.969687180000     105.709999980000      50.000000000000
      3249    2      118.125865090000      95.479999990000      50.000000000000
      3250    2      121.079011710000      97.184999980000      50.000000000000
      3251    2      118.125865090000      98.889999990000      50.000000000000
      3252    2      121.079011710000     100.594999990000      50.000000000000
      3253    2      118.125865090000     102.299999980000      50.000000000000
      3254    2      121.079011710000     104.004999990000      50.000000000000
      3255    2      118.125865090000     105.709999980000      50.000000000000
      3256    2      121.079011710000     107.414999990000      50.000000000000
      3257    2      124.032158350000      95.479999990000      50.000000000000
      3258    2      126.985304970000      97.184999980000      50.000000000000
      3259    2      124.032158350000      98.889999990000      50.000000000000
      3260    2      126.985304970000     100.594999990000      50.000000000000
      3261    2      124.032158350000     102.299999980000      50.000000000000
      3262    2      126.985304970000     104.004999990000      50.000000000000
      3263    2      124.032158350000     105.709999980000      50.000000000000
      3264    2      126.985304970000     107.414999990000      50.000000000000
      3265    1      130.922833800000      97.184999980000      50.000000000000
      3266    1      133.875980440000      95.479999990000      50.000000000000
      3267    1      130.922833800000     100.594999990000      50.000000000000
      3268    1      133.875980440000      98.889999990000      50.000000000000
      3269    1      130.922833800000     104.004999990000      50.000000000000
      3270    1      133.875980440000     102.299999980000      50.000000000000
      3271    1      130.922833800000     107.414999990000      50.000000000000
      3272    1      133.875980440000     105.709999980000      50.000000000000
      3273    3      136.829127060000      97.184999980000      50.000000000000
      3274    1      139.782273690000      95.479999990000      50.000000000000
      3275    1      136.829127060000     100.594999990000      50.000000000000
      3276    1      139.782273690000      98.889999990000      50.000000000000
      3277    1      136.829127060000     104.004999990000      50.000000000000
      3278    1      139.782273690000     102.299999980000      50.000000000000
      3279    1      136.829127060000     107.414999990000      50.000000000000
      3280    1      139.782273690000     105.709999980000      50.000000000000
      3281    2      129.938451600000      95.479999990000      50.000000000000
      3282    2      132.891598220000      97.184999980000      50.000000000000
      3283    2      129.938451600000      98.889999990000      50.000000000000
      3284    2      132.891598220000     100.594999990000      50.000000000000
      3285    2      129.938451600000     102.299999980000      50.000000000000
      3286    2      132.891598220000     104.004999990000      50.000000000000
      3287    2      129.938451600000     105.709999980000      50.000000000000
      3288    2      132.891598220000     107.414999990000      50.000000000000
      3289    2      135.844744850000      95.479999990000      50.000000000000
      3290    2      138.797891480000      97.184999980000      50.000000000000
      3291    2      135.844744850000      98.889999990000      50.000000000000
      3292    2      138.797891480000     100.594999990000      50.000000000000
      3293    2      135.844744850000     102.299999980000      50.000000000000
      3294    2      138.797891480000     104.004999990000      50.000000000000
      3295    2      135.844744850000     105.709999980000      50.000000000000
      3296    2      138.797891480000     107.414999990000      50.000000000000
      3297    1      142.735420310000      97.184999980000      50.000000000000
      3298    1      145.688566950000      95.479999990000      50.000000000000
      3299    1      142.735420310000     100.594999990000      50.000000000000
      3300    1      145.688566950000      98.889999990000      50.000000000000
      3301    1      142.735420310000     104.004999990000      50.000000000000
      3302    1      145.688566950000     102.299999980000      50.000000000000
      3303    1      142.735420310000     107.414999990000      50.000000000000
      3304    1      145.688566950000     105.709999980000      50.000000000000
      3305    1      148.641713570000      97.184999980000      50.000000000000
      3306    1      151.594860200000      95.479999990000      50.000000000000
      3307    1      148.641713570000     100.594999990000      50.000000000000
      3308    1      151.594860200000      98.889999990000      50.000000000000
      3309    1      148.641713570000     104.004999990000      50.000000000000
      3310    1      151.594860200000     102.299999980000      50.000000000000
      3311    1      148.641713570000     107.414999990000      50.000000000000
      3312    1      151.594860200000     105.709999980000      50.000000000000
      3313    2      141.751038110000      95.479999990000      50.000000000000
      3314    2      144.704184730000      97.184999980000      50.000000000000
      3315    2      141.751038110000      98.889999990000      50.000000000000
      3316    2      144.704184730000     100.594999990000      50.000000000000
      3317    2      141.751038110000     102.299999980000      50.000000000000
      3318    2      144.704184730000     104.004999990000      50.000000000000
      3319    2      141.751038110000     105.709999980000      50.000000000000
      3320    2      144.704184730000     107.414999990000      50.000000000000
      3321    2      147.657331360000      95.479999990000      50.000000000000
      3322    2      150.610477990000      97.184999980000      50.000000000000
      3323    2      147.657331360000      98.889999990000      50.000000000000
      3324    2      150.610477990000     100.594999990000      50.000000000000
      3325    2      147.657331360000     102.299999980000      50.000000000000
      3326    2      150.610477990000     104.004999990000      50.000000000000
      3327    2      147.657331360000     105.709999980000      50.000000000000
      3328    2      150.610477990000     107.414999990000      50.000000000000
      3329    3        0.984382200000     110.824999980000      50.000000000000
      3330    1        3.937528840000     109.119999990000      50.000000000000
      3331    1        0.984382200000     114.234999980000      50.000000000000
      3332    1        3.937528840000     112.529999990000      50.000000000000
      3333    1        0.984382200000     117.644999990000      50.000000000000
      3334    1        3.937528840000     115.939999980000      50.000000000000
      3335    1        0.984382200000     121.054999990000      50.000000000000
      3336    3        3.937528840000     119.349999980000      50.000000000000
      3337    1        6.890675460000     110.824999980000      50.000000000000
      3338    1        9.843822090000     109.119999990000      50.000000000000
      3339    3        6.890675460000     114.234999980000      50.000000000000
      3340    1        9.843822090000     112.529999990000      50.000000000000
      3341    1        6.890675460000     117.644999990000      50.000000000000
      3342    1        9.843822090000     115.939999980000      50.000000000000
      3343    1        6.890675460000     121.054999990000      50.000000000000
      3344    1        9.843822090000     119.349999980000      50.000000000000
      3345    2        0.000000000000     109.119999990000      50.000000000000
      3346    2        2.953146620000     110.824999980000      50.000000000000
      3347    2        0.000000000000     112.529999990000      50.000000000000
      3348    2        2.953146620000     114.234999980000      50.000000000000
      3349    2        0.000000000000     115.939999980000      50.000000000000
      3350    2        2.953146620000     117.644999990000      50.000000000000
      3351    2        0.000000000000     119.349999980000      50.000000000000
      3352    2        2.953146620000     121.054999990000      50.000000000000
      3353    2        5.906293250000     109.119999990000      50.000000000000
      3354    2        8.859439880000     110.824999980000      50.000000000000
      3355    2        5.906293250000     112.529999990000      50.000000000000
      3356    2        8.859439880000     114.234999980000      50.000000000000
      3357    2        5.906293250000     115.939999980000      50.000000000000
      3358    2        8.859439880000     117.644999990000      50.000000000000
      3359    2        5.906293250000     119.349999980000      50.000000000000
      3360    2        8.859439880000     121.054999990000      50.000000000000
      3361    1       12.796968710000     110.824999980000      50.000000000000
      3362    1       15.750115350000     109.119999990000      50.000000000000
      3363    1       12.796968710000     114.234999980000      50.000000000000
      3364    1       15.750115350000     112.529999990000      50.000000000000
      3365    3       12.796968710000     117.644999990000      50.000000000000
      3366    1       15.750115350000     115.939999980000      50.000000000000
      3367    1       12.796968710000     121.054999990000      50.000000000000
      3368    1       15.750115350000     119.349999980000      50.000000000000
      3369    1       18.703261970000     110.824999980000      50.000000000000
      3370    1       21.656408600000     109.119999990000      50.000000000000
      3371    1       18.703261970000     114.234999980000      50.000000000000
      3372    1       21.656408600000     112.529999990000      50.000000000000
      3373    1       18.703261970000     117.644999990000      50.000000000000
      3374    1       21.656408600000     115.939999980000      50.000000000000
      3375    1       18.703261970000     121.054999990000      50.000000000000
      3376    1       21.656408600000     119.349999980000      50.000000000000
      3377    2       11.812586510000     109.119999990000      50.000000000000
      3378    2       14.765733130000     110.824999980000      50.000000000000
      3379    2       11.812586510000     112.529999990000      50.000000000000
      3380    2       14.765733130000     114.234999980000      50.000000000000
      3381    2       11.812586510000     115.939999980000      50.000000000000
      3382    2       14.765733130000     117.644999990000      50.000000000000
      3383    2       11.812586510000     119.349999980000      50.000000000000
      3384    2       14.765733130000     121.054999990000      50.000000000000
      3385    2       17.718879760000     109.119999990000      50.000000000000
      3386    2       20.672026390000     110.824999980000      50.000000000000
      3387    2       17.718879760000     112.529999990000      50.000000000000
      3388    2       20.672026390000     114.234999980000      50.000000000000
      3389    2       17.718879760000     115.939999980000      50.000000000000
      3390    2       20.672026390000     117.644999990000      50.000000000000
      3391    2       17.718879760000     119.349999980000      50.000000000000
      3392    2       20.672026390000     121.054999990000      50.000000000000
      3393    1       24.609555220000     110.824999980000      50.000000000000
      3394    1       27.562701850000     109.119999990000      50.000000000000
      3395    1       24.609555220000     114.234999980000      50.000000000000
      3396    1       27.562701850000     112.529999990000      50.000000000000
      3397    1       24.609555220000     117.644999990000      50.000000000000
      3398    1       27.562701850000     115.939999980000      50.000000000000
      3399    1       24.609555220000     121.054999990000      50.000000000000
      3400    1       27.562701850000     119.349999980000      50.000000000000
      3401    1       30.515848480000     110.824999980000      50.000000000000
      3402    1       33.468995110000     109.119999990000      50.000000000000
      3403    1       30.515848480000     114.234999980000      50.000000000000
      3404    1       33.468995110000     112.529999990000      50.000000000000
      3405    1       30.515848480000     117.644999990000      50.000000000000
      3406    1       33.468995110000     115.939999980000      50.000000000000
      3407    3       30.515848480000     121.054999990000      50.000000000000
      3408    3       33.468995110000     119.349999980000      50.000000000000
      3409    2       23.625173020000     109.119999990000      50.000000000000
      3410    2       26.578319640000     110.824999980000      50.000000000000
      3411    2       23.625173020000     112.529999990000      50.000000000000
      3412    2       26.578319640000     114.234999980000      50.000000000000
      3413    2       23.625173020000     115.939999980000      50.000000000000
      3414    2       26.578319640000     117.644999990000      50.000000000000
      3415    2       23.625173020000     119.349999980000      50.000000000000
      3416    2       26.578319640000     121.054999990000      50.000000000000
      3417    2       29.531466270000     109.119999990000      50.000000000000
      3418    2       32.484612890000     110.824999980000      50.000000000000
      3419    2       29.531466270000     112.529999990000      50.000000000000
      3420    2       32.484612890000     114.234999980000      50.000000000000
      3421    2       29.531466270000     115.939999980000      50.000000000000
      3422    2       32.484612890000     117.644999990000      50.000000000000
      3423    2       29.531466270000     119.349999980000      50.000000000000
      3424    2       32.484612890000     121.054999990000      50.000000000000
      3425    1       36.422141730000     110.824999980000      50.000000000000
      3426    1       39.375288360000     109.119999990000      50.000000000000
      3427    1       36.422141730000     114.234999980000      50.000000000000
      3428    1       39.375288360000     112.529999990000      50.000000000000
      3429    1       36.422141730000     117.644999990000      50.000000000000
      3430    3       39.375288360000     115.939999980000      50.000000000000
      3431    3       36.422141730000     121.054999990000      50.000000000000
      3432    1       39.375288360000     119.349999980000      50.000000000000
      3433    1       42.328434990000     110.824999980000      50.000000000000
      3434    3       45.281581620000     109.119999990000      50.000000000000
      3435    1       42.328434990000     114.234999980000      50.000000000000
      3436    1       45.281581620000     112.529999990000      50.000000000000
      3437    1       42.328434990000     117.644999990000      50.000000000000
      3438    1       45.281581620000     115.939999980000      50.000000000000
      3439    1       42.328434990000     121.054999990000      50.000000000000
      3440    3       45.281581620000     119.349999980000      50.000000000000
      3441    2       35.437759530000     109.119999990000      50.000000000000
      3442    2       38.390906150000     110.824999980000      50.000000000000
      3443    2       35.437759530000     112.529999990000      50.000000000000
      3444    2       38.390906150000     114.234999980000      50.000000000000
      3445    2       35.437759530000     115.939999980000      50.000000000000
      3446    2       38.390906150000     117.644999990000      50.000000000000
      3447    2       35.437759530000     119.349999980000      50.000000000000
      3448    2       38.390906150000     121.054999990000      50.000000000000
      3449    2       41.344052780000     109.119999990000      50.000000000000
      3450    2       44.297199400000     110.824999980000      50.000000000000
      3451    2       41.344052780000     112.529999990000      50.000000000000
      3452    2       44.297199400000     114.234999980000      50.000000000000
      3453    2       41.344052780000     115.939999980000      50.000000000000
      3454    2       44.297199400000     117.644999990000      50.000000000000
      3455    2       41.344052780000     119.349999980000      50.000000000000
      3456    2       44.297199400000     121.054999990000      50.000000000000
      3457    1       48.234728240000     110.824999980000      50.000000000000
      3458    1       51.187874870000     109.119999990000      50.000000000000
      3459    1       48.234728240000     114.234999980000      50.000000000000
      3460    1       51.187874870000     112.529999990000      50.000000000000
      3461    1       48.234728240000     117.644999990000      50.000000000000
      3462    1       51.187874870000     115.939999980000      50.000000000000
      3463    1       48.234728240000     121.054999990000      50.000000000000
      3464    1       51.187874870000     119.349999980000      50.000000000000
      3465    1       54.141021490000     110.824999980000      50.000000000000
      3466    1       57.094168130000     109.119999990000      50.000000000000
      3467    1       54.141021490000     114.234999980000      50.000000000000
      3468    1       57.094168130000     112.529999990000      50.000000000000
      3469    3       54.141021490000     117.644999990000      50.000000000000
      3470    3       57.094168130000     115.939999980000      50.000000000000
      3471    1       54.141021490000     121.054999990000      50.000000000000
      3472    1       57.094168130000     119.349999980000      50.000000000000
      3473    2       47.250346040000     109.119999990000      50.000000000000
      3474    2       50.203492660000     110.824999980000      50.000000000000
      3475    2       47.250346040000     112.529999990000      50.000000000000
      3476    2       50.203492660000     114.234999980000      50.000000000000
      3477    2       47.250346040000     115.939999980000      50.000000000000
      3478    2       50.203492660000     117.644999990000      50.000000000000
      3479    2       47.250346040000     119.349999980000      50.000000000000
      3480    2       50.203492660000     121.054999990000      50.000000000000
      3481    2       53.156639290000     109.119999990000      50.000000000000
      3482    2       56.109785910000     110.824999980000      50.000000000000
      3483    2       53.156639290000     112.529999990000      50.000000000000
      3484    2       56.109785910000     114.234999980000      50.000000000000
      3485    2       53.156639290000     115.939999980000      50.000000000000
      3486    2       56.109785910000     117.644999990000      50.000000000000
      3487    2       53.156639290000     119.349999980000      50.000000000000
      3488    2       56.109785910000     121.054999990000      50.000000000000
      3489    1       60.047314750000     110.824999980000      50.000000000000
      3490    1       63.000461380000     109.119999990000      50.000000000000
      3491    1       60.047314750000     114.234999980000      50.000000000000
      3492    1       63.000461380000     112.529999990000      50.000000000000
      3493    1       60.047314750000     117.644999990000      50.000000000000
      3494    1       63.000461380000     115.939999980000      50.000000000000
      3495    1       60.047314750000     121.054999990000      50.000000000000
      3496    1       63.000461380000     119.349999980000      50.000000000000
      3497    1       65.953608000000     110.824999980000      50.000000000000
      3498    1       68.906754640000     109.119999990000      50.000000000000
      3499    1       65.953608000000     114.234999980000      50.000000000000
      3500    1       68.906754640000     112.529999990000      50.000000000000
      3501    1       65.953608000000     117.644999990000      50.000000000000
      3502    1       68.906754640000     115.939999980000      50.000000000000
      3503    1       65.953608000000     121.054999990000      50.000000000000
      3504    1       68.906754640000     119.349999980000      50.000000000000
      3505    2       59.062932550000     109.119999990000      50.000000000000
      3506    2       62.016079170000     110.824999980000      50.000000000000
      3507    2       59.062932550000     112.529999990000      50.000000000000
      3508    2       62.016079170000     114.234999980000      50.000000000000
      3509    2       59.062932550000     115.939999980000      50.000000000000
      3510    2       62.016079170000     117.644999990000      50.000000000000
      3511    2       59.062932550000     119.349999980000      50.000000000000
      3512    2       62.016079170000     121.054999990000      50.000000000000
      3513    2       64.969225800000     109.119999990000      50.000000000000
      3514    2       67.922372420000     110.824999980000      50.000000000000
      3515    2       64.969225800000     112.529999990000      50.000000000000
      3516    2       67.922372420000     114.234999980000      50.000000000000
      3517    2       64.969225800000     115.939999980000      50.000000000000
      3518    2       67.922372420000     117.644999990000      50.000000000000
      3519    2       64.969225800000     119.349999980000      50.000000000000
      3520    2       67.922372420000     121.054999990000      50.000000000000
      3521    1       71.859901260000     110.824999980000      50.000000000000
      3522    1       74.813047890000     109.119999990000      50.000000000000
      3523    1       71.859901260000     114.234999980000      50.000000000000
      3524    1       74.813047890000     112.529999990000      50.000000000000
      3525    1       71.859901260000     117.644999990000      50.000000000000
      3526    1       74.813047890000     115.939999980000      50.000000000000
      3527    1       71.859901260000     121.054999990000      50.000000000000
      3528    1       74.813047890000     119.349999980000      50.000000000000
      3529    1       77.766194510000     110.824999980000      50.000000000000
      3530    1       80.719341150000     109.119999990000      50.000000000000
      3531    1       77.766194510000     114.234999980000      50.000000000000
      3532    1       80.719341150000     112.529999990000      50.000000000000
      3533    1       77.766194510000     117.644999990000      50.000000000000
      3534    1       80.719341150000     115.939999980000      50.000000000000
      3535    1       77.766194510000     121.054999990000      50.000000000000
      3536    1       80.719341150000     119.349999980000      50.000000000000
      3537    2       70.875519050000     109.119999990000      50.000000000000
      3538    2       73.828665680000     110.824999980000      50.000000000000
      3539    2       70.875519050000     112.529999990000      50.000000000000
      3540    2       73.828665680000     114.234999980000      50.000000000000
      3541    2       70.875519050000     115.939999980000      50.000000000000
      3542    2       73.828665680000     117.644999990000      50.000000000000
      3543    2       70.875519050000     119.349999980000      50.000000000000
      3544    2       73.828665680000     121.054999990000      50.000000000000
      3545    2       76.781812310000     109.119999990000      50.000000000000
      3546    2       79.734958930000     110.824999980000      50.000000000000
      3547    2       76.781812310000     112.529999990000      50.000000000000
      3548    2       79.734958930000     114.234999980000      50.000000000000
      3549    2       76.781812310000     115.939999980000      50.000000000000
      3550    2       79.734958930000     117.644999990000      50.000000000000
      3551    2       76.781812310000     119.349999980000      50.000000000000
      3552    2       79.734958930000     121.054999990000      50.000000000000
      3553    1       83.672487770000     110.824999980000      50.000000000000
      3554    1       86.625634400000     109.119999990000      50.000000000000
      3555    1       83.672487770000     114.234999980000      50.000000000000
      3556    1       86.625634400000     112.529999990000      50.000000000000
      3557    1       83.672487770000     117.644999990000      50.000000000000
      3558    1       86.625634400000     115.939999980000      50.000000000000
      3559    3       83.672487770000     121.054999990000      50.000000000000
      3560    1       86.625634400000     119.349999980000      50.000000000000
      3561    1       89.578781020000     110.824999980000      50.000000000000
      3562    1       92.531927650000     109.119999990000      50.000000000000
      3563    1       89.578781020000     114.234999980000      50.000000000000
      3564    1       92.531927650000     112.529999990000      50.000000000000
      3565    1       89.578781020000     117.644999990000      50.000000000000
      3566    1       92.531927650000     115.939999980000      50.000000000000
      3567    1       89.578781020000     121.054999990000      50.000000000000
      3568    1       92.531927650000     119.349999980000      50.000000000000
      3569    2       82.688105560000     109.119999990000      50.000000000000
      3570    2       85.641252190000     110.824999980000      50.000000000000
      3571    2       82.688105560000     112.529999990000      50.000000000000
      3572    2       85.641252190000     114.234999980000      50.000000000000
      3573    2       82.688105560000     115.939999980000      50.000000000000
      3574    2       85.641252190000     117.644999990000      50.000000000000
      3575    2       82.688105560000     119.349999980000      50.000000000000
      3576    2       85.641252190000     121.054999990000      50.000000000000
      3577    2       88.594398820000     109.119999990000      50.000000000000
      3578    2       91.547545440000     110.824999980000      50.000000000000
      3579    2       88.594398820000     112.529999990000      50.000000000000
      3580    2       91.547545440000     114.234999980000      50.000000000000
      3581    2       88.594398820000     115.939999980000      50.000000000000
      3582    2       91.547545440000     117.644999990000      50.000000000000
      3583    2       88.594398820000     119.349999980000      50.000000000000
      3584    2       91.547545440000     121.054999990000      50.000000000000
      3585    1       95.485074280000     110.824999980000      50.000000000000
      3586    1       98.438220910000     109.119999990000      50.000000000000
      3587    1       95.485074280000     114.234999980000      50.000000000000
      3588    1       98.438220910000     112.529999990000      50.000000000000
      3589    1       95.485074280000     117.644999990000      50.000000000000
      3590    1       98.438220910000     115.939999980000      50.000000000000
      3591    1       95.485074280000     121.054999990000      50.000000000000
      3592    1       98.438220910000     119.349999980000      50.000000000000
      3593    1      101.391367530000     110.824999980000      50.000000000000
      3594    1      104.344514160000     109.119999990000      50.000000000000
      3595    1      101.391367530000     114.234999980000      50.000000000000
      3596    1      104.344514160000     112.529999990000      50.000000000000
      3597    1      101.391367530000     117.644999990000      50.000000000000
      3598    3      104.344514160000     115.939999980000      50.000000000000
      3599    1      101.391367530000     121.054999990000      50.000000000000
      3600    1      104.344514160000     119.349999980000      50.000000000000
      3601    2       94.500692070000     109.119999990000      50.000000000000
      3602    2       97.453838690000     110.824999980000      50.000000000000
      3603    2       94.500692070000     112.529999990000      50.000000000000
      3604    2       97.453838690000     114.234999980000      50.000000000000
      3605    2       94.500692070000     115.939999980000      50.000000000000
      3606    2       97.453838690000     117.644999990000      50.000000000000
      3607    2       94.500692070000     119.349999980000      50.000000000000
      3608    2       97.453838690000     121.054999990000      50.000000000000
      3609    2      100.406985330000     109.119999990000      50.000000000000
      3610    2      103.360131950000     110.824999980000      50.000000000000
      3611    2      100.406985330000     112.529999990000      50.000000000000
      3612    2      103.360131950000     114.234999980000      50.000000000000
      3613    2      100.406985330000     115.939999980000      50.000000000000
      3614    2      103.360131950000     117.644999990000      50.000000000000
      3615    2      100.406985330000     119.349999980000      50.000000000000
      3616    2      103.360131950000     121.054999990000      50.000000000000
      3617    1      107.297660790000     110.824999980000      50.000000000000
      3618    1      110.250807420000     109.119999990000      50.000000000000
      3619    1      107.297660790000     114.234999980000      50.000000000000
      3620    1      110.250807420000     112.529999990000      50.000000000000
      3621    1      107.297660790000     117.644999990000      50.000000000000
      3622    1      110.250807420000     115.939999980000      50.000000000000
      3623    1      107.297660790000     121.054999990000      50.000000000000
      3624    1      110.250807420000     119.349999980000      50.000000000000
      3625    1      113.203954040000     110.824999980000      50.000000000000
      3626    1      116.157100670000     109.119999990000      50.000000000000
      3627    1      113.203954040000     114.234999980000      50.000000000000
      3628    1      116.157100670000     112.529999990000      50.000000000000
      3629    1      113.203954040000     117.644999990000      50.000000000000
      3630    1      116.157100670000     115.939999980000      50.000000000000
      3631    1      113.203954040000     121.054999990000      50.000000000000
      3632    1      116.157100670000     119.349999980000      50.000000000000
      3633    2      106.313278580000     109.119999990000      50.000000000000
      3634    2      109.266425200000     110.824999980000      50.000000000000
      3635    2      106.313278580000     112.529999990000      50.000000000000
      3636    2      109.266425200000     114.234999980000      50.000000000000
      3637    2      106.313278580000     115.939999980000      50.000000000000
      3638    2      109.266425200000     117.644999990000      50.000000000000
      3639    2      106.313278580000     119.349999980000      50.000000000000
      3640    2      109.266425200000     121.054999990000      50.000000000000
      3641    2      112.219571840000     109.119999990000      50.000000000000
      3642    2      115.172718460000     110.824999980000      50.000000000000
      3643    2      112.219571840000     112.529999990000      50.000000000000
      3644    2      115.172718460000     114.234999980000      50.000000000000
      3645    2      112.219571840000     115.939999980000      50.000000000000
      3646    2      115.172718460000     117.644999990000      50.000000000000
      3647    2      112.219571840000     119.349999980000      50.000000000000
      3648    2      115.172718460000     121.054999990000      50.000000000000
      3649    1      119.110247290000     110.824999980000      50.000000000000
      3650    3      122.063393930000     109.119999990000      50.000000000000
      3651    1      119.110247290000     114.234999980000      50.000000000000
      3652    1      122.063393930000     112.529999990000      50.000000000000
      3653    1      119.110247290000     117.644999990000      50.000000000000
      3654    1      122.063393930000     115.939999980000      50.000000000000
      3655    3      119.110247290000     121.054999990000      50.000000000000
      3656    1      122.063393930000     119.349999980000      50.000000000000
      3657    1      125.016540550000     110.824999980000      50.000000000000
      3658    1      127.969687180000     109.119999990000      50.000000000000
      3659    3      125.016540550000     114.234999980000      50.000000000000
      3660    1      127.969687180000     112.529999990000      50.000000000000
      3661    1      125.016540550000     117.644999990000      50.000000000000
      3662    1      127.969687180000     115.939999980000      50.000000000000
      3663    1      125.016540550000     121.054999990000      50.000000000000
      3664    1      127.969687180000     119.349999980000      50.000000000000
      3665    2      118.125865090000     109.119999990000      50.000000000000
      3666    2      121.079011710000     110.824999980000      50.000000000000
      3667    2      118.125865090000     112.529999990000      50.000000000000
      3668    2      121.079011710000     114.234999980000      50.000000000000
      3669    2      118.125865090000     115.939999980000      50.000000000000
      3670    2      121.079011710000     117.644999990000      50.000000000000
      3671    2      118.125865090000     119.349999980000      50.000000000000
      3672    2      121.079011710000     121.054999990000      50.000000000000
      3673    2      124.032158350000     109.119999990000      50.000000000000
      3674    2      126.985304970000     110.824999980000      50.000000000000
      3675    2      124.032158350000     112.529999990000      50.000000000000
      3676    2      126.985304970000     114.234999980000      50.000000000000
      3677    2      124.032158350000     115.939999980000      50.000000000000
      3678    2      126.985304970000     117.644999990000      50.000000000000
      3679    2      124.032158350000     119.349999980000      50.000000000000
      3680    2      126.985304970000     121.054999990000      50.000000000000
      3681    1      130.922833800000     110.824999980000      50.000000000000
      3682    1      133.875980440000     109.119999990000      50.000000000000
      3683    1      130.922833800000     114.234999980000      50.000000000000
      3684    1      133.875980440000     112.529999990000      50.000000000000
      3685    1      130.922833800000     117.644999990000      50.000000000000
      3686    1      133.875980440000     115.939999980000      50.000000000000
      3687    1      130.922833800000     121.054999990000      50.000000000000
      3688    1      133.875980440000     119.349999980000      50.000000000000
      3689    1      136.829127060000     110.824999980000      50.000000000000
      3690    3      139.782273690000     109.119999990000      50.000000000000
      3691    1      136.829127060000     114.234999980000      50.000000000000
      3692    1      139.782273690000     112.529999990000      50.000000000000
      3693    1      136.829127060000     117.644999990000      50.000000000000
      3694    1      139.782273690000     115.939999980000      50.000000000000
      3695    1      136.829127060000     121.054999990000      50.000000000000
      3696    1      139.782273690000     119.349999980000      50.000000000000
      3697    2      129.938451600000     109.119999990000      50.000000000000
      3698    2      132.891598220000     110.824999980000      50.000000000000
      3699    2      129.938451600000     112.529999990000      50.000000000000
      3700    2      132.891598220000     114.234999980000      50.000000000000
      3701    2      129.938451600000     115.939999980000      50.000000000000
      3702    2      132.891598220000     117.644999990000      50.000000000000
      3703    2      129.938451600000     119.349999980000      50.000000000000
      3704    2      132.891598220000     121.054999990000      50.000000000000
      3705    2      135.844744850000     109.119999990000      50.000000000000
      3706    2      138.797891480000     110.824999980000      50.000000000000
      3707    2      135.844744850000     112.529999990000      50.000000000000
      3708    2      138.797891480000     114.234999980000      50.000000000000
      3709    2      135.844744850000     115.939999980000      50.000000000000
      3710    2      138.797891480000     117.644999990000      50.000000000000
      3711    2      135.844744850000     119.349999980000      50.000000000000
      3712    2      138.797891480000     121.054999990000      50.000000000000
      3713    1      142.735420310000     110.824999980000      50.000000000000
      3714    1      145.688566950000     109.119999990000      50.000000000000
      3715    1      142.735420310000     114.234999980000      50.000000000000
      3716    1      145.688566950000     112.529999990000      50.000000000000
      3717    3      142.735420310000     117.644999990000      50.000000000000
      3718    1      145.688566950000     115.939999980000      50.000000000000
      3719    1      142.735420310000     121.054999990000      50.000000000000
      3720    1      145.688566950000     119.349999980000      50.000000000000
      3721    1      148.641713570000     110.824999980000      50.000000000000
      3722    1      151.594860200000     109.119999990000      50.000000000000
      3723    1      148.641713570000     114.234999980000      50.000000000000
      3724    3      151.594860200000     112.529999990000      50.000000000000
      3725    3      148.641713570000     117.644999990000      50.000000000000
      3726    1      151.594860200000     115.939999980000      50.000000000000
      3727    1      148.641713570000     121.054999990000      50.000000000000
      3728    1      151.594860200000     119.349999980000      50.000000000000
      3729    2      141.751038110000     109.119999990000      50.000000000000
      3730    2      144.704184730000     110.824999980000      50.000000000000
      3731    2      141.751038110000     112.529999990000      50.000000000000
      3732    2      144.704184730000     114.234999980000      50.000000000000
      3733    2      141.751038110000     115.939999980000      50.000000000000
      3734    2      144.704184730000     117.644999990000      50.000000000000
      3735    2      141.751038110000     119.349999980000      50.000000000000
      3736    2      144.704184730000     121.054999990000      50.000000000000
      3737    2      147.657331360000     109.119999990000      50.000000000000
      3738    2      150.610477990000     110.824999980000      50.000000000000
      3739    2      147.657331360000     112.529999990000      50.000000000000
      3740    2      150.610477990000     114.234999980000      50.000000000000
      3741    2      147.657331360000     115.939999980000      50.000000000000
      3742    2      150.610477990000     117.644999990000      50.000000000000
      3743    2      147.657331360000     119.349999980000      50.000000000000
      3744    2      150.610477990000     121.054999990000      50.000000000000
      3745    3        0.984382200000     124.464999980000      50.000000000000
      3746    3        3.937528840000     122.759999980000      50.000000000000
      3747    1        0.984382200000     127.874999980000      50.000000000000
      3748    1        3.937528840000     126.169999990000      50.000000000000
      3749    3        0.984382200000     131.284999990000      50.000000000000
      3750    1        3.937528840000     129.579999980000      50.000000000000
      3751    1        0.984382200000     134.694999990000      50.000000000000
      3752    1        3.937528840000     132.989999980000      50.000000000000
      3753    1        6.890675460000     124.464999980000      50.000000000000
      3754    1        9.843822090000     122.759999980000      50.000000000000
      3755    1        6.890675460000     127.874999980000      50.000000000000
      3756    1        9.843822090000     126.169999990000      50.000000000000
      3757    1        6.890675460000     131.284999990000      50.000000000000
      3758    1        9.843822090000     129.579999980000      50.000000000000
      3759    1        6.890675460000     134.694999990000      50.000000000000
      3760    1        9.843822090000     132.989999980000      50.000000000000
      3761    2        0.000000000000     122.759999980000      50.000000000000
      3762    2        2.953146620000     124.464999980000      50.000000000000
      3763    2        0.000000000000     126.169999990000      50.000000000000
      3764    2        2.953146620000     127.874999980000      50.000000000000
      3765    2        0.000000000000     129.579999980000      50.000000000000
      3766    2        2.953146620000     131.284999990000      50.000000000000
      3767    2        0.000000000000     132.989999980000      50.000000000000
      3768    2        2.953146620000     134.694999990000      50.000000000000
      3769    2        5.906293250000     122.759999980000      50.000000000000
      3770    2        8.859439880000     124.464999980000      50.000000000000
      3771    2        5.906293250000     126.169999990000      50.000000000000
      3772    2        8.859439880000     127.874999980000      50.000000000000
      3773    2        5.906293250000     129.579999980000      50.000000000000
      3774    2        8.859439880000     131.284999990000      50.000000000000
      3775    2        5.906293250000     132.989999980000      50.000000000000
      3776    2        8.859439880000     134.694999990000      50.000000000000
      3777    1       12.796968710000     124.464999980000      50.000000000000
      3778    1       15.750115350000     122.759999980000      50.000000000000
      3779    1       12.796968710000     127.874999980000      50.000000000000
      3780    1       15.750115350000     126.169999990000      50.000000000000
      3781    1       12.796968710000     131.284999990000      50.000000000000
      3782    3       15.750115350000     129.579999980000      50.000000000000
      3783    3       12.796968710000     134.694999990000      50.000000000000
      3784    1       15.750115350000     132.989999980000      50.000000000000
      3785    1       18.703261970000     124.464999980000      50.000000000000
      3786    1       21.656408600000     122.759999980000      50.000000000000
      3787    1       18.703261970000     127.874999980000      50.000000000000
      3788    1       21.656408600000     126.169999990000      50.000000000000
      3789    3       18.703261970000     131.284999990000      50.000000000000
      3790    1       21.656408600000     129.579999980000      50.000000000000
      3791    1       18.703261970000     134.694999990000      50.000000000000
      3792    1       21.656408600000     132.989999980000      50.000000000000
      3793    2       11.812586510000     122.759999980000      50.000000000000
      3794    2       14.765733130000     124.464999980000      50.000000000000
      3795    2       11.812586510000     126.169999990000      50.000000000000
      3796    2       14.765733130000     127.874999980000      50.000000000000
      3797    2       11.812586510000     129.579999980000      50.000000000000
      3798    2       14.765733130000     131.284999990000      50.000000000000
      3799    2       11.812586510000     132.989999980000      50.000000000000
      3800    2       14.765733130000     134.694999990000      50.000000000000
      3801    2       17.718879760000     122.759999980000      50.000000000000
      3802    2       20.672026390000     124.464999980000      50.000000000000
      3803    2       17.718879760000     126.169999990000      50.000000000000
      3804    2       20.672026390000     127.874999980000      50.000000000000
      3805    2       17.718879760000     129.579999980000      50.000000000000
      3806    2       20.672026390000     131.284999990000      50.000000000000
      3807    2       17.718879760000     132.989999980000      50.000000000000
      3808    2       20.672026390000     134.694999990000      50.000000000000
      3809    1       24.609555220000     124.464999980000      50.000000000000
      3810    1       27.562701850000     122.759999980000      50.000000000000
      3811    1       24.609555220000     127.874999980000      50.000000000000
      3812    1       27.562701850000     126.169999990000      50.000000000000
      3813    1       24.609555220000     131.284999990000      50.000000000000
      3814    1       27.562701850000     129.579999980000      50.000000000000
      3815    1       24.609555220000     134.694999990000      50.000000000000
      3816    1       27.562701850000     132.989999980000      50.000000000000
      3817    3       30.515848480000     124.464999980000      50.000000000000
      3818    1       33.468995110000     122.759999980000      50.000000000000
      3819    1       30.515848480000     127.874999980000      50.000000000000
      3820    3       33.468995110000     126.169999990000      50.000000000000
      3821    1       30.515848480000     131.284999990000      50.000000000000
      3822    1       33.468995110000     129.579999980000      50.000000000000
      3823    1       30.515848480000     134.694999990000      50.000000000000
      3824    1       33.468995110000     132.989999980000      50.000000000000
      3825    2       23.625173020000     122.759999980000      50.000000000000
      3826    2       26.578319640000     124.464999980000      50.000000000000
      3827    2       23.625173020000     126.169999990000      50.000000000000
      3828    2       26.578319640000     127.874999980000      50.000000000000
      3829    2       23.625173020000     129.579999980000      50.000000000000
      3830    2       26.578319640000     131.284999990000      50.000000000000
      3831    2       23.625173020000     132.989999980000      50.000000000000
      3832    2       26.578319640000     134.694999990000      50.000000000000
      3833    2       29.531466270000     122.759999980000      50.000000000000
      3834    2       32.484612890000     124.464999980000      50.000000000000
      3835    2       29.531466270000     126.169999990000      50.000000000000
      3836    2       32.484612890000     127.874999980000      50.000000000000
      3837    2       29.531466270000     129.579999980000      50.000000000000
      3838    2       32.484612890000     131.284999990000      50.000000000000
      3839    2       29.531466270000     132.989999980000      50.000000000000
      3840    2       32.484612890000     134.694999990000      50.000000000000
      3841    1       36.422141730000     124.464999980000      50.000000000000
      3842    1       39.375288360000     122.759999980000      50.000000000000
      3843    3       36.422141730000     127.874999980000      50.000000000000
      3844    1       39.375288360000     126.169999990000      50.000000000000
      3845    1       36.422141730000     131.284999990000      50.000000000000
      3846    1       39.375288360000     129.579999980000      50.000000000000
      3847    1       36.422141730000     134.694999990000      50.000000000000
      3848    1       39.375288360000     132.989999980000      50.000000000000
      3849    1       42.328434990000     124.464999980000      50.000000000000
      3850    1       45.281581620000     122.759999980000      50.000000000000
      3851    1       42.328434990000     127.874999980000      50.000000000000
      3852    1       45.281581620000     126.169999990000      50.000000000000
      3853    1       42.328434990000     131.284999990000      50.000000000000
      3854    1       45.281581620000     129.579999980000      50.000000000000
      3855    1       42.328434990000     134.694999990000      50.000000000000
      3856    1       45.281581620000     132.989999980000      50.000000000000
      3857    2       35.437759530000     122.759999980000      50.000000000000
      3858    2       38.390906150000     124.464999980000      50.000000000000
      3859    2       35.437759530000     126.169999990000      50.000000000000
      3860    2       38.390906150000     127.874999980000      50.000000000000
      3861    2       35.437759530000     129.579999980000      50.000000000000
      3862    2       38.390906150000     131.284999990000      50.000000000000
      3863    2       35.437759530000     132.989999980000      50.000000000000
      3864    2       38.390906150000     134.694999990000      50.000000000000
      3865    2       41.344052780000     122.759999980000      50.000000000000
      3866    2       44.297199400000     124.464999980000      50.000000000000
      3867    2       41.344052780000     126.169999990000      50.000000000000
      3868    2       44.297199400000     127.874999980000      50.000000000000
      3869    2       41.344052780000     129.579999980000      50.000000000000
      3870    2       44.297199400000     131.284999990000      50.000000000000
      3871    2       41.344052780000     132.989999980000      50.000000000000
      3872    2       44.297199400000     134.694999990000      50.000000000000
      3873    1       48.234728240000     124.464999980000      50.000000000000
      3874    1       51.187874870000     122.759999980000      50.000000000000
      3875    1       48.234728240000     127.874999980000      50.000000000000
      3876    1       51.187874870000     126.169999990000      50.000000000000
      3877    1       48.234728240000     131.284999990000      50.000000000000
      3878    1       51.187874870000     129.579999980000      50.000000000000
      3879    1       48.234728240000     134.694999990000      50.000000000000
      3880    1       51.187874870000     132.989999980000      50.000000000000
      3881    1       54.141021490000     124.464999980000      50.000000000000
      3882    1       57.094168130000     122.759999980000      50.000000000000
      3883    1       54.141021490000     127.874999980000      50.000000000000
      3884    1       57.094168130000     126.169999990000      50.000000000000
      3885    1       54.141021490000     131.284999990000      50.000000000000
      3886    1       57.094168130000     129.579999980000      50.000000000000
      3887    1       54.141021490000     134.694999990000      50.000000000000
      3888    1       57.094168130000     132.989999980000      50.000000000000
      3889    2       47.250346040000     122.759999980000      50.000000000000
      3890    2       50.203492660000     124.464999980000      50.000000000000
      3891    2       47.250346040000     126.169999990000      50.000000000000
      3892    2       50.203492660000     127.874999980000      50.000000000000
      3893    2       47.250346040000     129.579999980000      50.000000000000
      3894    2       50.203492660000     131.284999990000      50.000000000000
      3895    2       47.250346040000     132.989999980000      50.000000000000
      3896    2       50.203492660000     134.694999990000      50.000000000000
      3897    2       53.156639290000     122.759999980000      50.000000000000
      3898    2       56.109785910000     124.464999980000      50.000000000000
      3899    2       53.156639290000     126.169999990000      50.000000000000
      3900    2       56.109785910000     127.874999980000      50.000000000000
      3901    2       53.156639290000     129.579999980000      50.000000000000
      3902    2       56.109785910000     131.284999990000      50.000000000000
      3903    2       53.156639290000     132.989999980000      50.000000000000
      3904    2       56.109785910000     134.694999990000      50.000000000000
      3905    1       60.047314750000     124.464999980000      50.000000000000
      3906    1       63.000461380000     122.759999980000      50.000000000000
      3907    1       60.047314750000     127.874999980000      50.000000000000
      3908    1       63.000461380000     126.169999990000      50.000000000000
      3909    1       60.047314750000     131.284999990000      50.000000000000
      3910    1       63.000461380000     129.579999980000      50.000000000000
      3911    1       60.047314750000     134.694999990000      50.000000000000
      3912    1       63.000461380000     132.989999980000      50.000000000000
      3913    1       65.953608000000     124.464999980000      50.000000000000
      3914    1       68.906754640000     122.759999980000      50.000000000000
      3915    1       65.953608000000     127.874999980000      50.000000000000
      3916    1       68.906754640000     126.169999990000      50.000000000000
      3917    1       65.953608000000     131.284999990000      50.000000000000
      3918    1       68.906754640000     129.579999980000      50.000000000000
      3919    1       65.953608000000     134.694999990000      50.000000000000
      3920    1       68.906754640000     132.989999980000      50.000000000000
      3921    2       59.062932550000     122.759999980000      50.000000000000
      3922    2       62.016079170000     124.464999980000      50.000000000000
      3923    2       59.062932550000     126.169999990000      50.000000000000
      3924    2       62.016079170000     127.874999980000      50.000000000000
      3925    2       59.062932550000     129.579999980000      50.000000000000
      3926    2       62.016079170000     131.284999990000      50.000000000000
      3927    2       59.062932550000     132.989999980000      50.000000000000
      3928    2       62.016079170000     134.694999990000      50.000000000000
      3929    2       64.969225800000     122.759999980000      50.000000000000
      3930    2       67.922372420000     124.464999980000      50.000000000000
      3931    2       64.969225800000     126.169999990000      50.000000000000
      3932    2       67.922372420000     127.874999980000      50.000000000000
      3933    2       64.969225800000     129.579999980000      50.000000000000
      3934    2       67.922372420000     131.284999990000      50.000000000000
      3935    2       64.969225800000     132.989999980000      50.000000000000
      3936    2       67.922372420000     134.694999990000      50.000000000000
      3937    1       71.859901260000     124.464999980000      50.000000000000
      3938    1       74.813047890000     122.759999980000      50.000000000000
      3939    1       71.859901260000     127.874999980000      50.000000000000
      3940    1       74.813047890000     126.169999990000      50.000000000000
      3941    1       71.859901260000     131.284999990000      50.000000000000
      3942    1       74.813047890000     129.579999980000      50.000000000000
      3943    1       71.859901260000     134.694999990000      50.000000000000
      3944    1       74.813047890000     132.989999980000      50.000000000000
      3945    1       77.766194510000     124.464999980000      50.000000000000
      3946    1       80.719341150000     122.759999980000      50.000000000000
      3947    1       77.766194510000     127.874999980000      50.000000000000
      3948    1       80.719341150000     126.169999990000      50.000000000000
      3949    1       77.766194510000     131.284999990000      50.000000000000
      3950    1       80.719341150000     129.579999980000      50.000000000000
      3951    1       77.766194510000     134.694999990000      50.000000000000
      3952    1       80.719341150000     132.989999980000      50.000000000000
      3953    2       70.875519050000     122.759999980000      50.000000000000
      3954    2       73.828665680000     124.464999980000      50.000000000000
      3955    2       70.875519050000     126.169999990000      50.000000000000
      3956    2       73.828665680000     127.874999980000      50.000000000000
      3957    2       70.875519050000     129.579999980000      50.000000000000
      3958    2       73.828665680000     131.284999990000      50.000000000000
      3959    2       70.875519050000     132.989999980000      50.000000000000
      3960    2       73.828665680000     134.694999990000      50.000000000000
      3961    2       76.781812310000     122.759999980000      50.000000000000
      3962    2       79.734958930000     124.464999980000      50.000000000000
      3963    2       76.781812310000     126.169999990000      50.000000000000
      3964    2       79.734958930000     127.874999980000      50.000000000000
      3965    2       76.781812310000     129.579999980000      50.000000000000
      3966    2       79.734958930000     131.284999990000      50.000000000000
      3967    2       76.781812310000     132.989999980000      50.000000000000
      3968    2       79.734958930000     134.694999990000      50.000000000000
      3969    1       83.672487770000     124.464999980000      50.000000000000
      3970    1       86.625634400000     122.759999980000      50.000000000000
      3971    3       83.672487770000     127.874999980000      50.000000000000
      3972    1       86.625634400000     126.169999990000      50.000000000000
      3973    3       83.672487770000     131.284999990000      50.000000000000
      3974    1       86.625634400000     129.579999980000      50.000000000000
      3975    1       83.672487770000     134.694999990000      50.000000000000
      3976    1       86.625634400000     132.989999980000      50.000000000000
      3977    1       89.578781020000     124.464999980000      50.000000000000
      3978    1       92.531927650000     122.759999980000      50.000000000000
      3979    1       89.578781020000     127.874999980000      50.000000000000
      3980    1       92.531927650000     126.169999990000      50.000000000000
      3981    1       89.578781020000     131.284999990000      50.000000000000
      3982    1       92.531927650000     129.579999980000      50.000000000000
      3983    1       89.578781020000     134.694999990000      50.000000000000
      3984    1       92.531927650000     132.989999980000      50.000000000000
      3985    2       82.688105560000     122.759999980000      50.000000000000
      3986    2       85.641252190000     124.464999980000      50.000000000000
      3987    2       82.688105560000     126.169999990000      50.000000000000
      3988    2       85.641252190000     127.874999980000      50.000000000000
      3989    2       82.688105560000     129.579999980000      50.000000000000
      3990    2       85.641252190000     131.284999990000      50.000000000000
      3991    2       82.688105560000     132.989999980000      50.000000000000
      3992    2       85.641252190000     134.694999990000      50.000000000000
      3993    2       88.594398820000     122.759999980000      50.000000000000
      3994    2       91.547545440000     124.464999980000      50.000000000000
      3995    2       88.594398820000     126.169999990000      50.000000000000
      3996    2       91.547545440000     127.874999980000      50.000000000000
      3997    2       88.594398820000     129.579999980000      50.000000000000
      3998    2       91.547545440000     131.284999990000      50.000000000000
      3999    2       88.594398820000     132.989999980000      50.000000000000
      4000    2       91.547545440000     134.694999990000      50.000000000000
      4001    1       95.485074280000     124.464999980000      50.000000000000
      4002    1       98.438220910000     122.759999980000      50.000000000000
      4003    1       95.485074280000     127.874999980000      50.000000000000
      4004    3       98.438220910000     126.169999990000      50.000000000000
      4005    3       95.485074280000     131.284999990000      50.000000000000
      4006    1       98.438220910000     129.579999980000      50.000000000000
      4007    1       95.485074280000     134.694999990000      50.000000000000
      4008    1       98.438220910000     132.989999980000      50.000000000000
      4009    1      101.391367530000     124.464999980000      50.000000000000
      4010    1      104.344514160000     122.759999980000      50.000000000000
      4011    1      101.391367530000     127.874999980000      50.000000000000
      4012    1      104.344514160000     126.169999990000      50.000000000000
      4013    1      101.391367530000     131.284999990000      50.000000000000
      4014    1      104.344514160000     129.579999980000      50.000000000000
      4015    1      101.391367530000     134.694999990000      50.000000000000
      4016    1      104.344514160000     132.989999980000      50.000000000000
      4017    2       94.500692070000     122.759999980000      50.000000000000
      4018    2       97.453838690000     124.464999980000      50.000000000000
      4019    2       94.500692070000     126.169999990000      50.000000000000
      4020    2       97.453838690000     127.874999980000      50.000000000000
      4021    2       94.500692070000     129.579999980000      50.000000000000
      4022    2       97.453838690000     131.284999990000      50.000000000000
      4023    2       94.500692070000     132.989999980000      50.000000000000
      4024    2       97.453838690000     134.694999990000      50.000000000000
      4025    2      100.406985330000     122.759999980000      50.000000000000
      4026    2      103.360131950000     124.464999980000      50.000000000000
      4027    2      100.406985330000     126.169999990000      50.000000000000
      4028    2      103.360131950000     127.874999980000      50.000000000000
      4029    2      100.406985330000     129.579999980000      50.000000000000
      4030    2      103.360131950000     131.284999990000      50.000000000000
      4031    2      100.406985330000     132.989999980000      50.000000000000
      4032    2      103.360131950000     134.694999990000      50.000000000000
      4033    1      107.297660790000     124.464999980000      50.000000000000
      4034    1      110.250807420000     122.759999980000      50.000000000000
      4035    1      107.297660790000     127.874999980000      50.000000000000
      4036    1      110.250807420000     126.169999990000      50.000000000000
      4037    1      107.297660790000     131.284999990000      50.000000000000
      4038    1      110.250807420000     129.579999980000      50.000000000000
      4039    1      107.297660790000     134.694999990000      50.000000000000
      4040    1      110.250807420000     132.989999980000      50.000000000000
      4041    1      113.203954040000     124.464999980000      50.000000000000
      4042    1      116.157100670000     122.759999980000      50.000000000000
      4043    1      113.203954040000     127.874999980000      50.000000000000
      4044    1      116.157100670000     126.169999990000      50.000000000000
      4045    1      113.203954040000     131.284999990000      50.000000000000
      4046    1      116.157100670000     129.579999980000      50.000000000000
      4047    3      113.203954040000     134.694999990000      50.000000000000
      4048    1      116.157100670000     132.989999980000      50.000000000000
      4049    2      106.313278580000     122.759999980000      50.000000000000
      4050    2      109.266425200000     124.464999980000      50.000000000000
      4051    2      106.313278580000     126.169999990000      50.000000000000
      4052    2      109.266425200000     127.874999980000      50.000000000000
      4053    2      106.313278580000     129.579999980000      50.000000000000
      4054    2      109.266425200000     131.284999990000      50.000000000000
      4055    2      106.313278580000     132.989999980000      50.000000000000
      4056    2      109.266425200000     134.694999990000      50.000000000000
      4057    2      112.219571840000     122.759999980000      50.000000000000
      4058    2      115.172718460000     124.464999980000      50.000000000000
      4059    2      112.219571840000     126.169999990000      50.000000000000
      4060    2      115.172718460000     127.874999980000      50.000000000000
      4061    2      112.219571840000     129.579999980000      50.000000000000
      4062    2      115.172718460000     131.284999990000      50.000000000000
      4063    2      112.219571840000     132.989999980000      50.000000000000
      4064    2      115.172718460000     134.694999990000      50.000000000000
      4065    3      119.110247290000     124.464999980000      50.000000000000
      4066    1      122.063393930000     122.759999980000      50.000000000000
      4067    1      119.110247290000     127.874999980000      50.000000000000
      4068    1      122.063393930000     126.169999990000      50.000000000000
      4069    1      119.110247290000     131.284999990000      50.000000000000
      4070    1      122.063393930000     129.579999980000      50.000000000000
      4071    1      119.110247290000     134.694999990000      50.000000000000
      4072    1      122.063393930000     132.989999980000      50.000000000000
      4073    1      125.016540550000     124.464999980000      50.000000000000
      4074    3      127.969687180000     122.759999980000      50.000000000000
      4075    3      125.016540550000     127.874999980000      50.000000000000
      4076    1      127.969687180000     126.169999990000      50.000000000000
      4077    1      125.016540550000     131.284999990000      50.000000000000
      4078    1      127.969687180000     129.579999980000      50.000000000000
      4079    1      125.016540550000     134.694999990000      50.000000000000
      4080    1      127.969687180000     132.989999980000      50.000000000000
      4081    2      118.125865090000     122.759999980000      50.000000000000
      4082    2      121.079011710000     124.464999980000      50.000000000000
      4083    2      118.125865090000     126.169999990000      50.000000000000
      4084    2      121.079011710000     127.874999980000      50.000000000000
      4085    2      118.125865090000     129.579999980000      50.000000000000
      4086    2      121.079011710000     131.284999990000      50.000000000000
      4087    2      118.125865090000     132.989999980000      50.000000000000
      4088    2      121.079011710000     134.694999990000      50.000000000000
      4089    2      124.032158350000     122.759999980000      50.000000000000
      4090    2      126.985304970000     124.464999980000      50.000000000000
      4091    2      124.032158350000     126.169999990000      50.000000000000
      4092    2      126.985304970000     127.874999980000      50.000000000000
      4093    2      124.032158350000     129.579999980000      50.000000000000
      4094    2      126.985304970000     131.284999990000      50.000000000000
      4095    2      124.032158350000     132.989999980000      50.000000000000
      4096    2      126.985304970000     134.694999990000      50.000000000000
      4097    1      130.922833800000     124.464999980000      50.000000000000
      4098    1      133.875980440000     122.759999980000      50.000000000000
      4099    1      130.922833800000     127.874999980000      50.000000000000
      4100    1      133.875980440000     126.169999990000      50.000000000000
      4101    3      130.922833800000     131.284999990000      50.000000000000
      4102    1      133.875980440000     129.579999980000      50.000000000000
      4103    1      130.922833800000     134.694999990000      50.000000000000
      4104    1      133.875980440000     132.989999980000      50.000000000000
      4105    3      136.829127060000     124.464999980000      50.000000000000
      4106    1      139.782273690000     122.759999980000      50.000000000000
      4107    1      136.829127060000     127.874999980000      50.000000000000
      4108    3      139.782273690000     126.169999990000      50.000000000000
      4109    1      136.829127060000     131.284999990000      50.000000000000
      4110    1      139.782273690000     129.579999980000      50.000000000000
      4111    1      136.829127060000     134.694999990000      50.000000000000
      4112    1      139.782273690000     132.989999980000      50.000000000000
      4113    2      129.938451600000     122.759999980000      50.000000000000
      4114    2      132.891598220000     124.464999980000      50.000000000000
      4115    2      129.938451600000     126.169999990000      50.000000000000
      4116    2      132.891598220000     127.874999980000      50.000000000000
      4117    2      129.938451600000     129.579999980000      50.000000000000
      4118    2      132.891598220000     131.284999990000      50.000000000000
      4119    2      129.938451600000     132.989999980000      50.000000000000
      4120    2      132.891598220000     134.694999990000      50.000000000000
      4121    2      135.844744850000     122.759999980000      50.000000000000
      4122    2      138.797891480000     124.464999980000      50.000000000000
      4123    2      135.844744850000     126.169999990000      50.000000000000
      4124    2      138.797891480000     127.874999980000      50.000000000000
      4125    2      135.844744850000     129.579999980000      50.000000000000
      4126    2      138.797891480000     131.284999990000      50.000000000000
      4127    2      135.844744850000     132.989999980000      50.000000000000
      4128    2      138.797891480000     134.694999990000      50.000000000000
      4129    1      142.735420310000     124.464999980000      50.000000000000
      4130    1      145.688566950000     122.759999980000      50.000000000000
      4131    1      142.735420310000     127.874999980000      50.000000000000
      4132    1      145.688566950000     126.169999990000      50.000000000000
      4133    1      142.735420310000     131.284999990000      50.000000000000
      4134    1      145.688566950000     129.579999980000      50.000000000000
      4135    1      142.735420310000     134.694999990000      50.000000000000
      4136    1      145.688566950000     132.989999980000      50.000000000000
      4137    1      148.641713570000     124.464999980000      50.000000000000
      4138    1      151.594860200000     122.759999980000      50.000000000000
      4139    1      148.641713570000     127.874999980000      50.000000000000
      4140    1      151.594860200000     126.169999990000      50.000000000000
      4141    1      148.641713570000     131.284999990000      50.000000000000
      4142    1      151.594860200000     129.579999980000      50.000000000000
      4143    1      148.641713570000     134.694999990000      50.000000000000
      4144    1      151.594860200000     132.989999980000      50.000000000000
      4145    2      141.751038110000     122.759999980000      50.000000000000
      4146    2      144.704184730000     124.464999980000      50.000000000000
      4147    2      141.751038110000     126.169999990000      50.000000000000
      4148    2      144.704184730000     127.874999980000      50.000000000000
      4149    2      141.751038110000     129.579999980000      50.000000000000
      4150    2      144.704184730000     131.284999990000      50.000000000000
      4151    2      141.751038110000     132.989999980000      50.000000000000
      4152    2      144.704184730000     134.694999990000      50.000000000000
      4153    2      147.657331360000     122.759999980000      50.000000000000
      4154    2      150.610477990000     124.464999980000      50.000000000000
      4155    2      147.657331360000     126.169999990000      50.000000000000
      4156    2      150.610477990000     127.874999980000      50.000000000000
      4157    2      147.657331360000     129.579999980000      50.000000000000
      4158    2      150.610477990000     131.284999990000      50.000000000000
      4159    2      147.657331360000     132.989999980000      50.000000000000
      4160    2      150.610477990000     134.694999990000      50.000000000000
      4161    1        0.984382200000     138.104999980000      50.000000000000
      4162    1        3.937528840000     136.399999980000      50.000000000000
      4163    1        0.984382200000     141.514999980000      50.000000000000
      4164    3        3.937528840000     139.809999990000      50.000000000000
      4165    1        0.984382200000     144.924999980000      50.000000000000
      4166    1        3.937528840000     143.219999980000      50.000000000000
      4167    1        0.984382200000     148.334999990000      50.000000000000
      4168    1        3.937528840000     146.629999980000      50.000000000000
      4169    1        6.890675460000     138.104999980000      50.000000000000
      4170    1        9.843822090000     136.399999980000      50.000000000000
      4171    1        6.890675460000     141.514999980000      50.000000000000
      4172    3        9.843822090000     139.809999990000      50.000000000000
      4173    1        6.890675460000     144.924999980000      50.000000000000
      4174    1        9.843822090000     143.219999980000      50.000000000000
      4175    3        6.890675460000     148.334999990000      50.000000000000
      4176    1        9.843822090000     146.629999980000      50.000000000000
      4177    2        0.000000000000     136.399999980000      50.000000000000
      4178    2        2.953146620000     138.104999980000      50.000000000000
      4179    2        0.000000000000     139.809999990000      50.000000000000
      4180    2        2.953146620000     141.514999980000      50.000000000000
      4181    2        0.000000000000     143.219999980000      50.000000000000
      4182    2        2.953146620000     144.924999980000      50.000000000000
      4183    2        0.000000000000     146.629999980000      50.000000000000
      4184    2        2.953146620000     148.334999990000      50.000000000000
      4185    2        5.906293250000     136.399999980000      50.000000000000
      4186    2        8.859439880000     138.104999980000      50.000000000000
      4187    2        5.906293250000     139.809999990000      50.000000000000
      4188    2        8.859439880000     141.514999980000      50.000000000000
      4189    2        5.906293250000     143.219999980000      50.000000000000
      4190    2        8.859439880000     144.924999980000      50.000000000000
      4191    2        5.906293250000     146.629999980000      50.000000000000
      4192    2        8.859439880000     148.334999990000      50.000000000000
      4193    3       12.796968710000     138.104999980000      50.000000000000
      4194    1       15.750115350000     136.399999980000      50.000000000000
      4195    1       12.796968710000     141.514999980000      50.000000000000
      4196    1       15.750115350000     139.809999990000      50.000000000000
      4197    1       12.796968710000     144.924999980000      50.000000000000
      4198    1       15.750115350000     143.219999980000      50.000000000000
      4199    1       12.796968710000     148.334999990000      50.000000000000
      4200    1       15.750115350000     146.629999980000      50.000000000000
      4201    1       18.703261970000     138.104999980000      50.000000000000
      4202    1       21.656408600000     136.399999980000      50.000000000000
      4203    1       18.703261970000     141.514999980000      50.000000000000
      4204    1       21.656408600000     139.809999990000      50.000000000000
      4205    1       18.703261970000     144.924999980000      50.000000000000
      4206    1       21.656408600000     143.219999980000      50.000000000000
      4207    1       18.703261970000     148.334999990000      50.000000000000
      4208    1       21.656408600000     146.629999980000      50.000000000000
      4209    2       11.812586510000     136.399999980000      50.000000000000
      4210    2       14.765733130000     138.104999980000      50.000000000000
      4211    2       11.812586510000     139.809999990000      50.000000000000
      4212    2       14.765733130000     141.514999980000      50.000000000000
      4213    2       11.812586510000     143.219999980000      50.000000000000
      4214    2       14.765733130000     144.924999980000      50.000000000000
      4215    2       11.812586510000     146.629999980000      50.000000000000
      4216    2       14.765733130000     148.334999990000      50.000000000000
      4217    2       17.718879760000     136.399999980000      50.000000000000
      4218    2       20.672026390000     138.104999980000      50.000000000000
      4219    2       17.718879760000     139.809999990000      50.000000000000
      4220    2       20.672026390000     141.514999980000      50.000000000000
      4221    2       17.718879760000     143.219999980000      50.000000000000
      4222    2       20.672026390000     144.924999980000      50.000000000000
      4223    2       17.718879760000     146.629999980000      50.000000000000
      4224    2       20.672026390000     148.334999990000      50.000000000000
      4225    3       24.609555220000     138.104999980000      50.000000000000
      4226    1       27.562701850000     136.399999980000      50.000000000000
      4227    1       24.609555220000     141.514999980000      50.000000000000
      4228    1       27.562701850000     139.809999990000      50.000000000000
      4229    1       24.609555220000     144.924999980000      50.000000000000
      4230    1       27.562701850000     143.219999980000      50.000000000000
      4231    1       24.609555220000     148.334999990000      50.000000000000
      4232    1       27.562701850000     146.629999980000      50.000000000000
      4233    1       30.515848480000     138.104999980000      50.000000000000
      4234    1       33.468995110000     136.399999980000      50.000000000000
      4235    1       30.515848480000     141.514999980000      50.000000000000
      4236    3       33.468995110000     139.809999990000      50.000000000000
      4237    3       30.515848480000     144.924999980000      50.000000000000
      4238    1       33.468995110000     143.219999980000      50.000000000000
      4239    1       30.515848480000     148.334999990000      50.000000000000
      4240    1       33.468995110000     146.629999980000      50.000000000000
      4241    2       23.625173020000     136.399999980000      50.000000000000
      4242    2       26.578319640000     138.104999980000      50.000000000000
      4243    2       23.625173020000     139.809999990000      50.000000000000
      4244    2       26.578319640000     141.514999980000      50.000000000000
      4245    2       23.625173020000     143.219999980000      50.000000000000
      4246    2       26.578319640000     144.924999980000      50.000000000000
      4247    2       23.625173020000     146.629999980000      50.000000000000
      4248    2       26.578319640000     148.334999990000      50.000000000000
      4249    2       29.531466270000     136.399999980000      50.000000000000
      4250    2       32.484612890000     138.104999980000      50.000000000000
      4251    2       29.531466270000     139.809999990000      50.000000000000
      4252    2       32.484612890000     141.514999980000      50.000000000000
      4253    2       29.531466270000     143.219999980000      50.000000000000
      4254    2       32.484612890000     144.924999980000      50.000000000000
      4255    2       29.531466270000     146.629999980000      50.000000000000
      4256    2       32.484612890000     148.334999990000      50.000000000000
      4257    1       36.422141730000     138.104999980000      50.000000000000
      4258    1       39.375288360000     136.399999980000      50.000000000000
      4259    1       36.422141730000     141.514999980000      50.000000000000
      4260    1       39.375288360000     139.809999990000      50.000000000000
      4261    1       36.422141730000     144.924999980000      50.000000000000
      4262    1       39.375288360000     143.219999980000      50.000000000000
      4263    1       36.422141730000     148.334999990000      50.000000000000
      4264    1       39.375288360000     146.629999980000      50.000000000000
      4265    1       42.328434990000     138.104999980000      50.000000000000
      4266    1       45.281581620000     136.399999980000      50.000000000000
      4267    1       42.328434990000     141.514999980000      50.000000000000
      4268    1       45.281581620000     139.809999990000      50.000000000000
      4269    1       42.328434990000     144.924999980000      50.000000000000
      4270    1       45.281581620000     143.219999980000      50.000000000000
      4271    1       42.328434990000     148.334999990000      50.000000000000
      4272    1       45.281581620000     146.629999980000      50.000000000000
      4273    2       35.437759530000     136.399999980000      50.000000000000
      4274    2       38.390906150000     138.104999980000      50.000000000000
      4275    2       35.437759530000     139.809999990000      50.000000000000
      4276    2       38.390906150000     141.514999980000      50.000000000000
      4277    2       35.437759530000     143.219999980000      50.000000000000
      4278    2       38.390906150000     144.924999980000      50.000000000000
      4279    2       35.437759530000     146.629999980000      50.000000000000
      4280    2       38.390906150000     148.334999990000      50.000000000000
      4281    2       41.344052780000     136.399999980000      50.000000000000
      4282    2       44.297199400000     138.104999980000      50.000000000000
      4283    2       41.344052780000     139.809999990000      50.000000000000
      4284    2       44.297199400000     141.514999980000      50.000000000000
      4285    2       41.344052780000     143.219999980000      50.000000000000
      4286    2       44.297199400000     144.924999980000      50.000000000000
      4287    2       41.344052780000     146.629999980000      50.000000000000
      4288    2       44.297199400000     148.334999990000      50.000000000000
      4289    1       48.234728240000     138.104999980000      50.000000000000
      4290    1       51.187874870000     136.399999980000      50.000000000000
      4291    1       48.234728240000     141.514999980000      50.000000000000
      4292    1       51.187874870000     139.809999990000      50.000000000000
      4293    1       48.234728240000     144.924999980000      50.000000000000
      4294    3       51.187874870000     143.219999980000      50.000000000000
      4295    1       48.234728240000     148.334999990000      50.000000000000
      4296    1       51.187874870000     146.629999980000      50.000000000000
      4297    3       54.141021490000     138.104999980000      50.000000000000
      4298    1       57.094168130000     136.399999980000      50.000000000000
      4299    1       54.141021490000     141.514999980000      50.000000000000
      4300    3       57.094168130000     139.809999990000      50.000000000000
      4301    1       54.141021490000     144.924999980000      50.000000000000
      4302    3       57.094168130000     143.219999980000      50.000000000000
      4303    1       54.141021490000     148.334999990000      50.000000000000
      4304    1       57.094168130000     146.629999980000      50.000000000000
      4305    2       47.250346040000     136.399999980000      50.000000000000
      4306    2       50.203492660000     138.104999980000      50.000000000000
      4307    2       47.250346040000     139.809999990000      50.000000000000
      4308    2       50.203492660000     141.514999980000      50.000000000000
      4309    2       47.250346040000     143.219999980000      50.000000000000
      4310    2       50.203492660000     144.924999980000      50.000000000000
      4311    2       47.250346040000     146.629999980000      50.000000000000
      4312    2       50.203492660000     148.334999990000      50.000000000000
      4313    2       53.156639290000     136.399999980000      50.000000000000
      4314    2       56.109785910000     138.104999980000      50.000000000000
      4315    2       53.156639290000     139.809999990000      50.000000000000
      4316    2       56.109785910000     141.514999980000      50.000000000000
      4317    2       53.156639290000     143.219999980000      50.000000000000
      4318    2       56.109785910000     144.924999980000      50.000000000000
      4319    2       53.156639290000     146.629999980000      50.000000000000
      4320    2       56.109785910000     148.334999990000      50.000000000000
      4321    1       60.047314750000     138.104999980000      50.000000000000
      4322    1       63.000461380000     136.399999980000      50.000000000000
      4323    1       60.047314750000     141.514999980000      50.000000000000
      4324    3       63.000461380000     139.809999990000      50.000000000000
      4325    1       60.047314750000     144.924999980000      50.000000000000
      4326    1       63.000461380000     143.219999980000      50.000000000000
      4327    1       60.047314750000     148.334999990000      50.000000000000
      4328    1       63.000461380000     146.629999980000      50.000000000000
      4329    3       65.953608000000     138.104999980000      50.000000000000
      4330    1       68.906754640000     136.399999980000      50.000000000000
      4331    1       65.953608000000     141.514999980000      50.000000000000
      4332    1       68.906754640000     139.809999990000      50.000000000000
      4333    1       65.953608000000     144.924999980000      50.000000000000
      4334    1       68.906754640000     143.219999980000      50.000000000000
      4335    1       65.953608000000     148.334999990000      50.000000000000
      4336    1       68.906754640000     146.629999980000      50.000000000000
      4337    2       59.062932550000     136.399999980000      50.000000000000
      4338    2       62.016079170000     138.104999980000      50.000000000000
      4339    2       59.062932550000     139.809999990000      50.000000000000
      4340    2       62.016079170000     141.514999980000      50.000000000000
      4341    2       59.062932550000     143.219999980000      50.000000000000
      4342    2       62.016079170000     144.924999980000      50.000000000000
      4343    2       59.062932550000     146.629999980000      50.000000000000
      4344    2       62.016079170000     148.334999990000      50.000000000000
      4345    2       64.969225800000     136.399999980000      50.000000000000
      4346    2       67.922372420000     138.104999980000      50.000000000000
      4347    2       64.969225800000     139.809999990000      50.000000000000
      4348    2       67.922372420000     141.514999980000      50.000000000000
      4349    2       64.969225800000     143.219999980000      50.000000000000
      4350    2       67.922372420000     144.924999980000      50.000000000000
      4351    2       64.969225800000     146.629999980000      50.000000000000
      4352    2       67.922372420000     148.334999990000      50.000000000000
      4353    1       71.859901260000     138.104999980000      50.000000000000
      4354    1       74.813047890000     136.399999980000      50.000000000000
      4355    1       71.859901260000     141.514999980000      50.000000000000
      4356    1       74.813047890000     139.809999990000      50.000000000000
      4357    1       71.859901260000     144.924999980000      50.000000000000
      4358    1       74.813047890000     143.219999980000      50.000000000000
      4359    1       71.859901260000     148.334999990000      50.000000000000
      4360    3       74.813047890000     146.629999980000      50.000000000000
      4361    1       77.766194510000     138.104999980000      50.000000000000
      4362    1       80.719341150000     136.399999980000      50.000000000000
      4363    1       77.766194510000     141.514999980000      50.000000000000
      4364    1       80.719341150000     139.809999990000      50.000000000000
      4365    1       77.766194510000     144.924999980000      50.000000000000
      4366    3       80.719341150000     143.219999980000      50.000000000000
      4367    1       77.766194510000     148.334999990000      50.000000000000
      4368    1       80.719341150000     146.629999980000      50.000000000000
      4369    2       70.875519050000     136.399999980000      50.000000000000
      4370    2       73.828665680000     138.104999980000      50.000000000000
      4371    2       70.875519050000     139.809999990000      50.000000000000
      4372    2       73.828665680000     141.514999980000      50.000000000000
      4373    2       70.875519050000     143.219999980000      50.000000000000
      4374    2       73.828665680000     144.924999980000      50.000000000000
      4375    2       70.875519050000     146.629999980000      50.000000000000
      4376    2       73.828665680000     148.334999990000      50.000000000000
      4377    2       76.781812310000     136.399999980000      50.000000000000
      4378    2       79.734958930000     138.104999980000      50.000000000000
      4379    2       76.781812310000     139.809999990000      50.000000000000
      4380    2       79.734958930000     141.514999980000      50.000000000000
      4381    2       76.781812310000     143.219999980000      50.000000000000
      4382    2       79.734958930000     144.924999980000      50.000000000000
      4383    2       76.781812310000     146.629999980000      50.000000000000
      4384    2       79.734958930000     148.334999990000      50.000000000000
      4385    3       83.672487770000     138.104999980000      50.000000000000
      4386    1       86.625634400000     136.399999980000      50.000000000000
      4387    3       83.672487770000     141.514999980000      50.000000000000
      4388    1       86.625634400000     139.809999990000      50.000000000000
      4389    3       83.672487770000     144.924999980000      50.000000000000
      4390    1       86.625634400000     143.219999980000      50.000000000000
      4391    1       83.672487770000     148.334999990000      50.000000000000
      4392    1       86.625634400000     146.629999980000      50.000000000000
      4393    1       89.578781020000     138.104999980000      50.000000000000
      4394    1       92.531927650000     136.399999980000      50.000000000000
      4395    1       89.578781020000     141.514999980000      50.000000000000
      4396    1       92.531927650000     139.809999990000      50.000000000000
      4397    1       89.578781020000     144.924999980000      50.000000000000
      4398    1       92.531927650000     143.219999980000      50.000000000000
      4399    1       89.578781020000     148.334999990000      50.000000000000
      4400    1       92.531927650000     146.629999980000      50.000000000000
      4401    2       82.688105560000     136.399999980000      50.000000000000
      4402    2       85.641252190000     138.104999980000      50.000000000000
      4403    2       82.688105560000     139.809999990000      50.000000000000
      4404    2       85.641252190000     141.514999980000      50.000000000000
      4405    2       82.688105560000     143.219999980000      50.000000000000
      4406    2       85.641252190000     144.924999980000      50.000000000000
      4407    2       82.688105560000     146.629999980000      50.000000000000
      4408    2       85.641252190000     148.334999990000      50.000000000000
      4409    2       88.594398820000     136.399999980000      50.000000000000
      4410    2       91.547545440000     138.104999980000      50.000000000000
      4411    2       88.594398820000     139.809999990000      50.000000000000
      4412    2       91.547545440000     141.514999980000      50.000000000000
      4413    2       88.594398820000     143.219999980000      50.000000000000
      4414    2       91.547545440000     144.924999980000      50.000000000000
      4415    2       88.594398820000     146.629999980000      50.000000000000
      4416    2       91.547545440000     148.334999990000      50.000000000000
      4417    1       95.485074280000     138.104999980000      50.000000000000
      4418    1       98.438220910000     136.399999980000      50.000000000000
      4419    1       95.485074280000     141.514999980000      50.000000000000
      4420    1       98.438220910000     139.809999990000      50.000000000000
      4421    1       95.485074280000     144.924999980000      50.000000000000
      4422    1       98.438220910000     143.219999980000      50.000000000000
      4423    1       95.485074280000     148.334999990000      50.000000000000
      4424    1       98.438220910000     146.629999980000      50.000000000000
      4425    1      101.391367530000     138.104999980000      50.000000000000
      4426    1      104.344514160000     136.399999980000      50.000000000000
      4427    1      101.391367530000     141.514999980000      50.000000000000
      4428    3      104.344514160000     139.809999990000      50.000000000000
      4429    1      101.391367530000     144.924999980000      50.000000000000
      4430    1      104.344514160000     143.219999980000      50.000000000000
      4431    1      101.391367530000     148.334999990000      50.000000000000
      4432    3      104.344514160000     146.629999980000      50.000000000000
      4433    2       94.500692070000     136.399999980000      50.000000000000
      4434    2       97.453838690000     138.104999980000      50.000000000000
      4435    2       94.500692070000     139.809999990000      50.000000000000
      4436    2       97.453838690000     141.514999980000      50.000000000000
      4437    2       94.500692070000     143.219999980000      50.000000000000
      4438    2       97.453838690000     144.924999980000      50.000000000000
      4439    2       94.500692070000     146.629999980000      50.000000000000
      4440    2       97.453838690000     148.334999990000      50.000000000000
      4441    2      100.406985330000     136.399999980000      50.000000000000
      4442    2      103.360131950000     138.104999980000      50.000000000000
      4443    2      100.406985330000     139.809999990000      50.000000000000
      4444    2      103.360131950000     141.514999980000      50.000000000000
      4445    2      100.406985330000     143.219999980000      50.000000000000
      4446    2      103.360131950000     144.924999980000      50.000000000000
      4447    2      100.406985330000     146.629999980000      50.000000000000
      4448    2      103.360131950000     148.334999990000      50.000000000000
      4449    3      107.297660790000     138.104999980000      50.000000000000
      4450    1      110.250807420000     136.399999980000      50.000000000000
      4451    1      107.297660790000     141.514999980000      50.000000000000
      4452    1      110.250807420000     139.809999990000      50.000000000000
      4453    1      107.297660790000     144.924999980000      50.000000000000
      4454    1      110.250807420000     143.219999980000      50.000000000000
      4455    1      107.297660790000     148.334999990000      50.000000000000
      4456    1      110.250807420000     146.629999980000      50.000000000000
      4457    1      113.203954040000     138.104999980000      50.000000000000
      4458    1      116.157100670000     136.399999980000      50.000000000000
      4459    1      113.203954040000     141.514999980000      50.000000000000
      4460    1      116.157100670000     139.809999990000      50.000000000000
      4461    1      113.203954040000     144.924999980000      50.000000000000
      4462    1      116.157100670000     143.219999980000      50.000000000000
      4463    1      113.203954040000     148.334999990000      50.000000000000
      4464    3      116.157100670000     146.629999980000      50.000000000000
      4465    2      106.313278580000     136.399999980000      50.000000000000
      4466    2      109.266425200000     138.104999980000      50.000000000000
      4467    2      106.313278580000     139.809999990000      50.000000000000
      4468    2      109.266425200000     141.514999980000      50.000000000000
      4469    2      106.313278580000     143.219999980000      50.000000000000
      4470    2      109.266425200000     144.924999980000      50.000000000000
      4471    2      106.313278580000     146.629999980000      50.000000000000
      4472    2      109.266425200000     148.334999990000      50.000000000000
      4473    2      112.219571840000     136.399999980000      50.000000000000
      4474    2      115.172718460000     138.104999980000      50.000000000000
      4475    2      112.219571840000     139.809999990000      50.000000000000
      4476    2      115.172718460000     141.514999980000      50.000000000000
      4477    2      112.219571840000     143.219999980000      50.000000000000
      4478    2      115.172718460000     144.924999980000      50.000000000000
      4479    2      112.219571840000     146.629999980000      50.000000000000
      4480    2      115.172718460000     148.334999990000      50.000000000000
      4481    1      119.110247290000     138.104999980000      50.000000000000
      4482    1      122.063393930000     136.399999980000      50.000000000000
      4483    1      119.110247290000     141.514999980000      50.000000000000
      4484    1      122.063393930000     139.809999990000      50.000000000000
      4485    1      119.110247290000     144.924999980000      50.000000000000
      4486    1      122.063393930000     143.219999980000      50.000000000000
      4487    1      119.110247290000     148.334999990000      50.000000000000
      4488    1      122.063393930000     146.629999980000      50.000000000000
      4489    1      125.016540550000     138.104999980000      50.000000000000
      4490    1      127.969687180000     136.399999980000      50.000000000000
      4491    1      125.016540550000     141.514999980000      50.000000000000
      4492    1      127.969687180000     139.809999990000      50.000000000000
      4493    1      125.016540550000     144.924999980000      50.000000000000
      4494    1      127.969687180000     143.219999980000      50.000000000000
      4495    1      125.016540550000     148.334999990000      50.000000000000
      4496    1      127.969687180000     146.629999980000      50.000000000000
      4497    2      118.125865090000     136.399999980000      50.000000000000
      4498    2      121.079011710000     138.104999980000      50.000000000000
      4499    2      118.125865090000     139.809999990000      50.000000000000
      4500    2      121.079011710000     141.514999980000      50.000000000000
      4501    2      118.125865090000     143.219999980000      50.000000000000
      4502    2      121.079011710000     144.924999980000      50.000000000000
      4503    2      118.125865090000     146.629999980000      50.000000000000
      4504    2      121.079011710000     148.334999990000      50.000000000000
      4505    2      124.032158350000     136.399999980000      50.000000000000
      4506    2      126.985304970000     138.104999980000      50.000000000000
      4507    2      124.032158350000     139.809999990000      50.000000000000
      4508    2      126.985304970000     141.514999980000      50.000000000000
      4509    2      124.032158350000     143.219999980000      50.000000000000
      4510    2      126.985304970000     144.924999980000      50.000000000000
      4511    2      124.032158350000     146.629999980000      50.000000000000
      4512    2      126.985304970000     148.334999990000      50.000000000000
      4513    1      130.922833800000     138.104999980000      50.000000000000
      4514    1      133.875980440000     136.399999980000      50.000000000000
      4515    1      130.922833800000     141.514999980000      50.000000000000
      4516    1      133.875980440000     139.809999990000      50.000000000000
      4517    1      130.922833800000     144.924999980000      50.000000000000
      4518    1      133.875980440000     143.219999980000      50.000000000000
      4519    1      130.922833800000     148.334999990000      50.000000000000
      4520    1      133.875980440000     146.629999980000      50.000000000000
      4521    1      136.829127060000     138.104999980000      50.000000000000
      4522    1      139.782273690000     136.399999980000      50.000000000000
      4523    1      136.829127060000     141.514999980000      50.000000000000
      4524    1      139.782273690000     139.809999990000      50.000000000000
      4525    1      136.829127060000     144.924999980000      50.000000000000
      4526    1      139.782273690000     143.219999980000      50.000000000000
      4527    1      136.829127060000     148.334999990000      50.000000000000
      4528    1      139.782273690000     146.629999980000      50.000000000000
      4529    2      129.938451600000     136.399999980000      50.000000000000
      4530    2      132.891598220000     138.104999980000      50.000000000000
      4531    2      129.938451600000     139.809999990000      50.000000000000
      4532    2      132.891598220000     141.514999980000      50.000000000000
      4533    2      129.938451600000     143.219999980000      50.000000000000
      4534    2      132.891598220000     144.924999980000      50.000000000000
      4535    2      129.938451600000     146.629999980000      50.000000000000
      4536    2      132.891598220000     148.334999990000      50.000000000000
      4537    2      135.844744850000     136.399999980000      50.000000000000
      4538    2      138.797891480000     138.104999980000      50.000000000000
      4539    2      135.844744850000     139.809999990000      50.000000000000
      4540    2      138.797891480000     141.514999980000      50.000000000000
      4541    2      135.844744850000     143.219999980000      50.000000000000
      4542    2      138.797891480000     144.924999980000      50.000000000000
      4543    2      135.844744850000     146.629999980000      50.000000000000
      4544    2      138.797891480000     148.334999990000      50.000000000000
      4545    1      142.735420310000     138.104999980000      50.000000000000
      4546    1      145.688566950000     136.399999980000      50.000000000000
      4547    1      142.735420310000     141.514999980000      50.000000000000
      4548    1      145.688566950000     139.809999990000      50.000000000000
      4549    1      142.735420310000     144.924999980000      50.000000000000
      4550    1      145.688566950000     143.219999980000      50.000000000000
      4551    3      142.735420310000     148.334999990000      50.000000000000
      4552    1      145.688566950000     146.629999980000      50.000000000000
      4553    1      148.641713570000     138.104999980000      50.000000000000
      4554    3      151.594860200000     136.399999980000      50.000000000000
      4555    1      148.641713570000     141.514999980000      50.000000000000
      4556    1      151.594860200000     139.809999990000      50.000000000000
      4557    1      148.641713570000     144.924999980000      50.000000000000
      4558    3      151.594860200000     143.219999980000      50.000000000000
      4559    1      148.641713570000     148.334999990000      50.000000000000
      4560    1      151.594860200000     146.629999980000      50.000000000000
      4561    2      141.751038110000     136.399999980000      50.000000000000
      4562    2      144.704184730000     138.104999980000      50.000000000000
      4563    2      141.751038110000     139.809999990000      50.000000000000
      4564    2      144.704184730000     141.514999980000      50.000000000000
      4565    2      141.751038110000     143.219999980000      50.000000000000
      4566    2      144.704184730000     144.924999980000      50.000000000000
      4567    2      141.751038110000     146.629999980000      50.000000000000
      4568    2      144.704184730000     148.334999990000      50.000000000000
      4569    2      147.657331360000     136.399999980000      50.000000000000
      4570    2      150.610477990000     138.104999980000      50.000000000000
      4571    2      147.657331360000     139.809999990000      50.000000000000
      4572    2      150.610477990000     141.514999980000      50.000000000000
      4573    2      147.657331360000     143.219999980000      50.000000000000
      4574    2      150.610477990000     144.924999980000      50.000000000000
      4575    2      147.657331360000     146.629999980000      50.000000000000
      4576    2      150.610477990000     148.334999990000      50.000000000000
