 # Lammps sturcture data file
  
        4576  atoms
           3  atom types
 
      0.000000000000     153.563624620000  xlo xhi
      0.000000000000     150.039999980000  ylo yhi
      0.000000000000     100.000000000000  zlo zhi
 
Masses
 
            1   10.81000000             # B
            2   26.98153860             # Al
            3   14.00700000             # N
 
Atoms # atomic
 
         1    1        0.984382200000       1.705000000000      50.000000000000
         2    2        3.937528840000       0.000000000000      50.000000000000
         3    2        0.984382200000       5.115000000000      50.000000000000
         4    2        3.937528840000       3.410000000000      50.000000000000
         5    1        0.984382200000       8.525000000000      50.000000000000
         6    2        3.937528840000       6.819999990000      50.000000000000
         7    2        0.984382200000      11.935000000000      50.000000000000
         8    1        3.937528840000      10.230000000000      50.000000000000
         9    2        6.890675460000       1.705000000000      50.000000000000
        10    2        9.843822090000       0.000000000000      50.000000000000
        11    2        6.890675460000       5.115000000000      50.000000000000
        12    2        9.843822090000       3.410000000000      50.000000000000
        13    2        6.890675460000       8.525000000000      50.000000000000
        14    2        9.843822090000       6.819999990000      50.000000000000
        15    2        6.890675460000      11.935000000000      50.000000000000
        16    2        9.843822090000      10.230000000000      50.000000000000
        17    3        0.000000000000       0.000000000000      50.000000000000
        18    3        2.953146620000       1.705000000000      50.000000000000
        19    3        0.000000000000       3.410000000000      50.000000000000
        20    3        2.953146620000       5.115000000000      50.000000000000
        21    3        0.000000000000       6.819999990000      50.000000000000
        22    3        2.953146620000       8.525000000000      50.000000000000
        23    3        0.000000000000      10.230000000000      50.000000000000
        24    3        2.953146620000      11.935000000000      50.000000000000
        25    3        5.906293250000       0.000000000000      50.000000000000
        26    3        8.859439880000       1.705000000000      50.000000000000
        27    3        5.906293250000       3.410000000000      50.000000000000
        28    3        8.859439880000       5.115000000000      50.000000000000
        29    3        5.906293250000       6.819999990000      50.000000000000
        30    3        8.859439880000       8.525000000000      50.000000000000
        31    3        5.906293250000      10.230000000000      50.000000000000
        32    3        8.859439880000      11.935000000000      50.000000000000
        33    2       12.796968710000       1.705000000000      50.000000000000
        34    2       15.750115350000       0.000000000000      50.000000000000
        35    2       12.796968710000       5.115000000000      50.000000000000
        36    2       15.750115350000       3.410000000000      50.000000000000
        37    2       12.796968710000       8.525000000000      50.000000000000
        38    2       15.750115350000       6.819999990000      50.000000000000
        39    2       12.796968710000      11.935000000000      50.000000000000
        40    2       15.750115350000      10.230000000000      50.000000000000
        41    2       18.703261970000       1.705000000000      50.000000000000
        42    2       21.656408600000       0.000000000000      50.000000000000
        43    1       18.703261970000       5.115000000000      50.000000000000
        44    2       21.656408600000       3.410000000000      50.000000000000
        45    2       18.703261970000       8.525000000000      50.000000000000
        46    1       21.656408600000       6.819999990000      50.000000000000
        47    2       18.703261970000      11.935000000000      50.000000000000
        48    1       21.656408600000      10.230000000000      50.000000000000
        49    3       11.812586510000       0.000000000000      50.000000000000
        50    3       14.765733130000       1.705000000000      50.000000000000
        51    3       11.812586510000       3.410000000000      50.000000000000
        52    3       14.765733130000       5.115000000000      50.000000000000
        53    3       11.812586510000       6.819999990000      50.000000000000
        54    3       14.765733130000       8.525000000000      50.000000000000
        55    3       11.812586510000      10.230000000000      50.000000000000
        56    3       14.765733130000      11.935000000000      50.000000000000
        57    3       17.718879760000       0.000000000000      50.000000000000
        58    3       20.672026390000       1.705000000000      50.000000000000
        59    3       17.718879760000       3.410000000000      50.000000000000
        60    3       20.672026390000       5.115000000000      50.000000000000
        61    3       17.718879760000       6.819999990000      50.000000000000
        62    3       20.672026390000       8.525000000000      50.000000000000
        63    3       17.718879760000      10.230000000000      50.000000000000
        64    3       20.672026390000      11.935000000000      50.000000000000
        65    2       24.609555220000       1.705000000000      50.000000000000
        66    2       27.562701850000       0.000000000000      50.000000000000
        67    2       24.609555220000       5.115000000000      50.000000000000
        68    2       27.562701850000       3.410000000000      50.000000000000
        69    2       24.609555220000       8.525000000000      50.000000000000
        70    2       27.562701850000       6.819999990000      50.000000000000
        71    1       24.609555220000      11.935000000000      50.000000000000
        72    2       27.562701850000      10.230000000000      50.000000000000
        73    2       30.515848480000       1.705000000000      50.000000000000
        74    2       33.468995110000       0.000000000000      50.000000000000
        75    2       30.515848480000       5.115000000000      50.000000000000
        76    2       33.468995110000       3.410000000000      50.000000000000
        77    2       30.515848480000       8.525000000000      50.000000000000
        78    2       33.468995110000       6.819999990000      50.000000000000
        79    2       30.515848480000      11.935000000000      50.000000000000
        80    2       33.468995110000      10.230000000000      50.000000000000
        81    3       23.625173020000       0.000000000000      50.000000000000
        82    3       26.578319640000       1.705000000000      50.000000000000
        83    3       23.625173020000       3.410000000000      50.000000000000
        84    3       26.578319640000       5.115000000000      50.000000000000
        85    3       23.625173020000       6.819999990000      50.000000000000
        86    3       26.578319640000       8.525000000000      50.000000000000
        87    3       23.625173020000      10.230000000000      50.000000000000
        88    3       26.578319640000      11.935000000000      50.000000000000
        89    3       29.531466270000       0.000000000000      50.000000000000
        90    3       32.484612890000       1.705000000000      50.000000000000
        91    3       29.531466270000       3.410000000000      50.000000000000
        92    3       32.484612890000       5.115000000000      50.000000000000
        93    3       29.531466270000       6.819999990000      50.000000000000
        94    3       32.484612890000       8.525000000000      50.000000000000
        95    3       29.531466270000      10.230000000000      50.000000000000
        96    3       32.484612890000      11.935000000000      50.000000000000
        97    2       36.422141730000       1.705000000000      50.000000000000
        98    2       39.375288360000       0.000000000000      50.000000000000
        99    2       36.422141730000       5.115000000000      50.000000000000
       100    1       39.375288360000       3.410000000000      50.000000000000
       101    2       36.422141730000       8.525000000000      50.000000000000
       102    2       39.375288360000       6.819999990000      50.000000000000
       103    2       36.422141730000      11.935000000000      50.000000000000
       104    2       39.375288360000      10.230000000000      50.000000000000
       105    2       42.328434990000       1.705000000000      50.000000000000
       106    2       45.281581620000       0.000000000000      50.000000000000
       107    2       42.328434990000       5.115000000000      50.000000000000
       108    2       45.281581620000       3.410000000000      50.000000000000
       109    2       42.328434990000       8.525000000000      50.000000000000
       110    2       45.281581620000       6.819999990000      50.000000000000
       111    2       42.328434990000      11.935000000000      50.000000000000
       112    2       45.281581620000      10.230000000000      50.000000000000
       113    3       35.437759530000       0.000000000000      50.000000000000
       114    3       38.390906150000       1.705000000000      50.000000000000
       115    3       35.437759530000       3.410000000000      50.000000000000
       116    3       38.390906150000       5.115000000000      50.000000000000
       117    3       35.437759530000       6.819999990000      50.000000000000
       118    3       38.390906150000       8.525000000000      50.000000000000
       119    3       35.437759530000      10.230000000000      50.000000000000
       120    3       38.390906150000      11.935000000000      50.000000000000
       121    3       41.344052780000       0.000000000000      50.000000000000
       122    3       44.297199400000       1.705000000000      50.000000000000
       123    3       41.344052780000       3.410000000000      50.000000000000
       124    3       44.297199400000       5.115000000000      50.000000000000
       125    3       41.344052780000       6.819999990000      50.000000000000
       126    3       44.297199400000       8.525000000000      50.000000000000
       127    3       41.344052780000      10.230000000000      50.000000000000
       128    3       44.297199400000      11.935000000000      50.000000000000
       129    2       48.234728240000       1.705000000000      50.000000000000
       130    2       51.187874870000       0.000000000000      50.000000000000
       131    2       48.234728240000       5.115000000000      50.000000000000
       132    2       51.187874870000       3.410000000000      50.000000000000
       133    2       48.234728240000       8.525000000000      50.000000000000
       134    2       51.187874870000       6.819999990000      50.000000000000
       135    2       48.234728240000      11.935000000000      50.000000000000
       136    2       51.187874870000      10.230000000000      50.000000000000
       137    2       54.141021490000       1.705000000000      50.000000000000
       138    1       57.094168130000       0.000000000000      50.000000000000
       139    2       54.141021490000       5.115000000000      50.000000000000
       140    2       57.094168130000       3.410000000000      50.000000000000
       141    2       54.141021490000       8.525000000000      50.000000000000
       142    2       57.094168130000       6.819999990000      50.000000000000
       143    2       54.141021490000      11.935000000000      50.000000000000
       144    2       57.094168130000      10.230000000000      50.000000000000
       145    3       47.250346040000       0.000000000000      50.000000000000
       146    3       50.203492660000       1.705000000000      50.000000000000
       147    3       47.250346040000       3.410000000000      50.000000000000
       148    3       50.203492660000       5.115000000000      50.000000000000
       149    3       47.250346040000       6.819999990000      50.000000000000
       150    3       50.203492660000       8.525000000000      50.000000000000
       151    3       47.250346040000      10.230000000000      50.000000000000
       152    3       50.203492660000      11.935000000000      50.000000000000
       153    3       53.156639290000       0.000000000000      50.000000000000
       154    3       56.109785910000       1.705000000000      50.000000000000
       155    3       53.156639290000       3.410000000000      50.000000000000
       156    3       56.109785910000       5.115000000000      50.000000000000
       157    3       53.156639290000       6.819999990000      50.000000000000
       158    3       56.109785910000       8.525000000000      50.000000000000
       159    3       53.156639290000      10.230000000000      50.000000000000
       160    3       56.109785910000      11.935000000000      50.000000000000
       161    2       60.047314750000       1.705000000000      50.000000000000
       162    2       63.000461380000       0.000000000000      50.000000000000
       163    2       60.047314750000       5.115000000000      50.000000000000
       164    2       63.000461380000       3.410000000000      50.000000000000
       165    2       60.047314750000       8.525000000000      50.000000000000
       166    2       63.000461380000       6.819999990000      50.000000000000
       167    2       60.047314750000      11.935000000000      50.000000000000
       168    2       63.000461380000      10.230000000000      50.000000000000
       169    2       65.953608000000       1.705000000000      50.000000000000
       170    2       68.906754640000       0.000000000000      50.000000000000
       171    2       65.953608000000       5.115000000000      50.000000000000
       172    2       68.906754640000       3.410000000000      50.000000000000
       173    2       65.953608000000       8.525000000000      50.000000000000
       174    2       68.906754640000       6.819999990000      50.000000000000
       175    2       65.953608000000      11.935000000000      50.000000000000
       176    2       68.906754640000      10.230000000000      50.000000000000
       177    3       59.062932550000       0.000000000000      50.000000000000
       178    3       62.016079170000       1.705000000000      50.000000000000
       179    3       59.062932550000       3.410000000000      50.000000000000
       180    3       62.016079170000       5.115000000000      50.000000000000
       181    3       59.062932550000       6.819999990000      50.000000000000
       182    3       62.016079170000       8.525000000000      50.000000000000
       183    3       59.062932550000      10.230000000000      50.000000000000
       184    3       62.016079170000      11.935000000000      50.000000000000
       185    3       64.969225800000       0.000000000000      50.000000000000
       186    3       67.922372420000       1.705000000000      50.000000000000
       187    3       64.969225800000       3.410000000000      50.000000000000
       188    3       67.922372420000       5.115000000000      50.000000000000
       189    3       64.969225800000       6.819999990000      50.000000000000
       190    3       67.922372420000       8.525000000000      50.000000000000
       191    3       64.969225800000      10.230000000000      50.000000000000
       192    3       67.922372420000      11.935000000000      50.000000000000
       193    2       71.859901260000       1.705000000000      50.000000000000
       194    2       74.813047890000       0.000000000000      50.000000000000
       195    2       71.859901260000       5.115000000000      50.000000000000
       196    2       74.813047890000       3.410000000000      50.000000000000
       197    2       71.859901260000       8.525000000000      50.000000000000
       198    2       74.813047890000       6.819999990000      50.000000000000
       199    2       71.859901260000      11.935000000000      50.000000000000
       200    2       74.813047890000      10.230000000000      50.000000000000
       201    2       77.766194510000       1.705000000000      50.000000000000
       202    2       80.719341150000       0.000000000000      50.000000000000
       203    2       77.766194510000       5.115000000000      50.000000000000
       204    2       80.719341150000       3.410000000000      50.000000000000
       205    2       77.766194510000       8.525000000000      50.000000000000
       206    2       80.719341150000       6.819999990000      50.000000000000
       207    2       77.766194510000      11.935000000000      50.000000000000
       208    1       80.719341150000      10.230000000000      50.000000000000
       209    3       70.875519050000       0.000000000000      50.000000000000
       210    3       73.828665680000       1.705000000000      50.000000000000
       211    3       70.875519050000       3.410000000000      50.000000000000
       212    3       73.828665680000       5.115000000000      50.000000000000
       213    3       70.875519050000       6.819999990000      50.000000000000
       214    3       73.828665680000       8.525000000000      50.000000000000
       215    3       70.875519050000      10.230000000000      50.000000000000
       216    3       73.828665680000      11.935000000000      50.000000000000
       217    3       76.781812310000       0.000000000000      50.000000000000
       218    3       79.734958930000       1.705000000000      50.000000000000
       219    3       76.781812310000       3.410000000000      50.000000000000
       220    3       79.734958930000       5.115000000000      50.000000000000
       221    3       76.781812310000       6.819999990000      50.000000000000
       222    3       79.734958930000       8.525000000000      50.000000000000
       223    3       76.781812310000      10.230000000000      50.000000000000
       224    3       79.734958930000      11.935000000000      50.000000000000
       225    2       83.672487770000       1.705000000000      50.000000000000
       226    2       86.625634400000       0.000000000000      50.000000000000
       227    2       83.672487770000       5.115000000000      50.000000000000
       228    2       86.625634400000       3.410000000000      50.000000000000
       229    2       83.672487770000       8.525000000000      50.000000000000
       230    2       86.625634400000       6.819999990000      50.000000000000
       231    1       83.672487770000      11.935000000000      50.000000000000
       232    2       86.625634400000      10.230000000000      50.000000000000
       233    2       89.578781020000       1.705000000000      50.000000000000
       234    2       92.531927650000       0.000000000000      50.000000000000
       235    2       89.578781020000       5.115000000000      50.000000000000
       236    2       92.531927650000       3.410000000000      50.000000000000
       237    2       89.578781020000       8.525000000000      50.000000000000
       238    2       92.531927650000       6.819999990000      50.000000000000
       239    2       89.578781020000      11.935000000000      50.000000000000
       240    2       92.531927650000      10.230000000000      50.000000000000
       241    3       82.688105560000       0.000000000000      50.000000000000
       242    3       85.641252190000       1.705000000000      50.000000000000
       243    3       82.688105560000       3.410000000000      50.000000000000
       244    3       85.641252190000       5.115000000000      50.000000000000
       245    3       82.688105560000       6.819999990000      50.000000000000
       246    3       85.641252190000       8.525000000000      50.000000000000
       247    3       82.688105560000      10.230000000000      50.000000000000
       248    3       85.641252190000      11.935000000000      50.000000000000
       249    3       88.594398820000       0.000000000000      50.000000000000
       250    3       91.547545440000       1.705000000000      50.000000000000
       251    3       88.594398820000       3.410000000000      50.000000000000
       252    3       91.547545440000       5.115000000000      50.000000000000
       253    3       88.594398820000       6.819999990000      50.000000000000
       254    3       91.547545440000       8.525000000000      50.000000000000
       255    3       88.594398820000      10.230000000000      50.000000000000
       256    3       91.547545440000      11.935000000000      50.000000000000
       257    2       95.485074280000       1.705000000000      50.000000000000
       258    2       98.438220910000       0.000000000000      50.000000000000
       259    2       95.485074280000       5.115000000000      50.000000000000
       260    2       98.438220910000       3.410000000000      50.000000000000
       261    2       95.485074280000       8.525000000000      50.000000000000
       262    2       98.438220910000       6.819999990000      50.000000000000
       263    2       95.485074280000      11.935000000000      50.000000000000
       264    2       98.438220910000      10.230000000000      50.000000000000
       265    1      101.391367530000       1.705000000000      50.000000000000
       266    2      104.344514160000       0.000000000000      50.000000000000
       267    2      101.391367530000       5.115000000000      50.000000000000
       268    2      104.344514160000       3.410000000000      50.000000000000
       269    2      101.391367530000       8.525000000000      50.000000000000
       270    2      104.344514160000       6.819999990000      50.000000000000
       271    2      101.391367530000      11.935000000000      50.000000000000
       272    2      104.344514160000      10.230000000000      50.000000000000
       273    3       94.500692070000       0.000000000000      50.000000000000
       274    3       97.453838690000       1.705000000000      50.000000000000
       275    3       94.500692070000       3.410000000000      50.000000000000
       276    3       97.453838690000       5.115000000000      50.000000000000
       277    3       94.500692070000       6.819999990000      50.000000000000
       278    3       97.453838690000       8.525000000000      50.000000000000
       279    3       94.500692070000      10.230000000000      50.000000000000
       280    3       97.453838690000      11.935000000000      50.000000000000
       281    3      100.406985330000       0.000000000000      50.000000000000
       282    3      103.360131950000       1.705000000000      50.000000000000
       283    3      100.406985330000       3.410000000000      50.000000000000
       284    3      103.360131950000       5.115000000000      50.000000000000
       285    3      100.406985330000       6.819999990000      50.000000000000
       286    3      103.360131950000       8.525000000000      50.000000000000
       287    3      100.406985330000      10.230000000000      50.000000000000
       288    3      103.360131950000      11.935000000000      50.000000000000
       289    2      107.297660790000       1.705000000000      50.000000000000
       290    2      110.250807420000       0.000000000000      50.000000000000
       291    2      107.297660790000       5.115000000000      50.000000000000
       292    2      110.250807420000       3.410000000000      50.000000000000
       293    2      107.297660790000       8.525000000000      50.000000000000
       294    2      110.250807420000       6.819999990000      50.000000000000
       295    2      107.297660790000      11.935000000000      50.000000000000
       296    2      110.250807420000      10.230000000000      50.000000000000
       297    2      113.203954040000       1.705000000000      50.000000000000
       298    2      116.157100670000       0.000000000000      50.000000000000
       299    2      113.203954040000       5.115000000000      50.000000000000
       300    2      116.157100670000       3.410000000000      50.000000000000
       301    2      113.203954040000       8.525000000000      50.000000000000
       302    2      116.157100670000       6.819999990000      50.000000000000
       303    2      113.203954040000      11.935000000000      50.000000000000
       304    1      116.157100670000      10.230000000000      50.000000000000
       305    3      106.313278580000       0.000000000000      50.000000000000
       306    3      109.266425200000       1.705000000000      50.000000000000
       307    3      106.313278580000       3.410000000000      50.000000000000
       308    3      109.266425200000       5.115000000000      50.000000000000
       309    3      106.313278580000       6.819999990000      50.000000000000
       310    3      109.266425200000       8.525000000000      50.000000000000
       311    3      106.313278580000      10.230000000000      50.000000000000
       312    3      109.266425200000      11.935000000000      50.000000000000
       313    3      112.219571840000       0.000000000000      50.000000000000
       314    3      115.172718460000       1.705000000000      50.000000000000
       315    3      112.219571840000       3.410000000000      50.000000000000
       316    3      115.172718460000       5.115000000000      50.000000000000
       317    3      112.219571840000       6.819999990000      50.000000000000
       318    3      115.172718460000       8.525000000000      50.000000000000
       319    3      112.219571840000      10.230000000000      50.000000000000
       320    3      115.172718460000      11.935000000000      50.000000000000
       321    2      119.110247290000       1.705000000000      50.000000000000
       322    2      122.063393930000       0.000000000000      50.000000000000
       323    2      119.110247290000       5.115000000000      50.000000000000
       324    2      122.063393930000       3.410000000000      50.000000000000
       325    2      119.110247290000       8.525000000000      50.000000000000
       326    2      122.063393930000       6.819999990000      50.000000000000
       327    2      119.110247290000      11.935000000000      50.000000000000
       328    2      122.063393930000      10.230000000000      50.000000000000
       329    2      125.016540550000       1.705000000000      50.000000000000
       330    2      127.969687180000       0.000000000000      50.000000000000
       331    2      125.016540550000       5.115000000000      50.000000000000
       332    2      127.969687180000       3.410000000000      50.000000000000
       333    2      125.016540550000       8.525000000000      50.000000000000
       334    2      127.969687180000       6.819999990000      50.000000000000
       335    2      125.016540550000      11.935000000000      50.000000000000
       336    2      127.969687180000      10.230000000000      50.000000000000
       337    3      118.125865090000       0.000000000000      50.000000000000
       338    3      121.079011710000       1.705000000000      50.000000000000
       339    3      118.125865090000       3.410000000000      50.000000000000
       340    3      121.079011710000       5.115000000000      50.000000000000
       341    3      118.125865090000       6.819999990000      50.000000000000
       342    3      121.079011710000       8.525000000000      50.000000000000
       343    3      118.125865090000      10.230000000000      50.000000000000
       344    3      121.079011710000      11.935000000000      50.000000000000
       345    3      124.032158350000       0.000000000000      50.000000000000
       346    3      126.985304970000       1.705000000000      50.000000000000
       347    3      124.032158350000       3.410000000000      50.000000000000
       348    3      126.985304970000       5.115000000000      50.000000000000
       349    3      124.032158350000       6.819999990000      50.000000000000
       350    3      126.985304970000       8.525000000000      50.000000000000
       351    3      124.032158350000      10.230000000000      50.000000000000
       352    3      126.985304970000      11.935000000000      50.000000000000
       353    2      130.922833800000       1.705000000000      50.000000000000
       354    2      133.875980440000       0.000000000000      50.000000000000
       355    2      130.922833800000       5.115000000000      50.000000000000
       356    2      133.875980440000       3.410000000000      50.000000000000
       357    2      130.922833800000       8.525000000000      50.000000000000
       358    2      133.875980440000       6.819999990000      50.000000000000
       359    2      130.922833800000      11.935000000000      50.000000000000
       360    2      133.875980440000      10.230000000000      50.000000000000
       361    1      136.829127060000       1.705000000000      50.000000000000
       362    2      139.782273690000       0.000000000000      50.000000000000
       363    2      136.829127060000       5.115000000000      50.000000000000
       364    2      139.782273690000       3.410000000000      50.000000000000
       365    2      136.829127060000       8.525000000000      50.000000000000
       366    1      139.782273690000       6.819999990000      50.000000000000
       367    2      136.829127060000      11.935000000000      50.000000000000
       368    2      139.782273690000      10.230000000000      50.000000000000
       369    3      129.938451600000       0.000000000000      50.000000000000
       370    3      132.891598220000       1.705000000000      50.000000000000
       371    3      129.938451600000       3.410000000000      50.000000000000
       372    3      132.891598220000       5.115000000000      50.000000000000
       373    3      129.938451600000       6.819999990000      50.000000000000
       374    3      132.891598220000       8.525000000000      50.000000000000
       375    3      129.938451600000      10.230000000000      50.000000000000
       376    3      132.891598220000      11.935000000000      50.000000000000
       377    3      135.844744850000       0.000000000000      50.000000000000
       378    3      138.797891480000       1.705000000000      50.000000000000
       379    3      135.844744850000       3.410000000000      50.000000000000
       380    3      138.797891480000       5.115000000000      50.000000000000
       381    3      135.844744850000       6.819999990000      50.000000000000
       382    3      138.797891480000       8.525000000000      50.000000000000
       383    3      135.844744850000      10.230000000000      50.000000000000
       384    3      138.797891480000      11.935000000000      50.000000000000
       385    2      142.735420310000       1.705000000000      50.000000000000
       386    2      145.688566950000       0.000000000000      50.000000000000
       387    2      142.735420310000       5.115000000000      50.000000000000
       388    2      145.688566950000       3.410000000000      50.000000000000
       389    2      142.735420310000       8.525000000000      50.000000000000
       390    2      145.688566950000       6.819999990000      50.000000000000
       391    2      142.735420310000      11.935000000000      50.000000000000
       392    2      145.688566950000      10.230000000000      50.000000000000
       393    2      148.641713570000       1.705000000000      50.000000000000
       394    2      151.594860200000       0.000000000000      50.000000000000
       395    2      148.641713570000       5.115000000000      50.000000000000
       396    2      151.594860200000       3.410000000000      50.000000000000
       397    2      148.641713570000       8.525000000000      50.000000000000
       398    2      151.594860200000       6.819999990000      50.000000000000
       399    2      148.641713570000      11.935000000000      50.000000000000
       400    2      151.594860200000      10.230000000000      50.000000000000
       401    3      141.751038110000       0.000000000000      50.000000000000
       402    3      144.704184730000       1.705000000000      50.000000000000
       403    3      141.751038110000       3.410000000000      50.000000000000
       404    3      144.704184730000       5.115000000000      50.000000000000
       405    3      141.751038110000       6.819999990000      50.000000000000
       406    3      144.704184730000       8.525000000000      50.000000000000
       407    3      141.751038110000      10.230000000000      50.000000000000
       408    3      144.704184730000      11.935000000000      50.000000000000
       409    3      147.657331360000       0.000000000000      50.000000000000
       410    3      150.610477990000       1.705000000000      50.000000000000
       411    3      147.657331360000       3.410000000000      50.000000000000
       412    3      150.610477990000       5.115000000000      50.000000000000
       413    3      147.657331360000       6.819999990000      50.000000000000
       414    3      150.610477990000       8.525000000000      50.000000000000
       415    3      147.657331360000      10.230000000000      50.000000000000
       416    3      150.610477990000      11.935000000000      50.000000000000
       417    2        0.984382200000      15.344999990000      50.000000000000
       418    2        3.937528840000      13.640000000000      50.000000000000
       419    2        0.984382200000      18.755000000000      50.000000000000
       420    2        3.937528840000      17.050000000000      50.000000000000
       421    2        0.984382200000      22.165000000000      50.000000000000
       422    2        3.937528840000      20.459999990000      50.000000000000
       423    1        0.984382200000      25.575000000000      50.000000000000
       424    2        3.937528840000      23.869999990000      50.000000000000
       425    2        6.890675460000      15.344999990000      50.000000000000
       426    2        9.843822090000      13.640000000000      50.000000000000
       427    2        6.890675460000      18.755000000000      50.000000000000
       428    2        9.843822090000      17.050000000000      50.000000000000
       429    2        6.890675460000      22.165000000000      50.000000000000
       430    2        9.843822090000      20.459999990000      50.000000000000
       431    2        6.890675460000      25.575000000000      50.000000000000
       432    2        9.843822090000      23.869999990000      50.000000000000
       433    3        0.000000000000      13.640000000000      50.000000000000
       434    3        2.953146620000      15.344999990000      50.000000000000
       435    3        0.000000000000      17.050000000000      50.000000000000
       436    3        2.953146620000      18.755000000000      50.000000000000
       437    3        0.000000000000      20.459999990000      50.000000000000
       438    3        2.953146620000      22.165000000000      50.000000000000
       439    3        0.000000000000      23.869999990000      50.000000000000
       440    3        2.953146620000      25.575000000000      50.000000000000
       441    3        5.906293250000      13.640000000000      50.000000000000
       442    3        8.859439880000      15.344999990000      50.000000000000
       443    3        5.906293250000      17.050000000000      50.000000000000
       444    3        8.859439880000      18.755000000000      50.000000000000
       445    3        5.906293250000      20.459999990000      50.000000000000
       446    3        8.859439880000      22.165000000000      50.000000000000
       447    3        5.906293250000      23.869999990000      50.000000000000
       448    3        8.859439880000      25.575000000000      50.000000000000
       449    2       12.796968710000      15.344999990000      50.000000000000
       450    1       15.750115350000      13.640000000000      50.000000000000
       451    1       12.796968710000      18.755000000000      50.000000000000
       452    2       15.750115350000      17.050000000000      50.000000000000
       453    2       12.796968710000      22.165000000000      50.000000000000
       454    2       15.750115350000      20.459999990000      50.000000000000
       455    2       12.796968710000      25.575000000000      50.000000000000
       456    2       15.750115350000      23.869999990000      50.000000000000
       457    2       18.703261970000      15.344999990000      50.000000000000
       458    2       21.656408600000      13.640000000000      50.000000000000
       459    2       18.703261970000      18.755000000000      50.000000000000
       460    2       21.656408600000      17.050000000000      50.000000000000
       461    2       18.703261970000      22.165000000000      50.000000000000
       462    2       21.656408600000      20.459999990000      50.000000000000
       463    2       18.703261970000      25.575000000000      50.000000000000
       464    2       21.656408600000      23.869999990000      50.000000000000
       465    3       11.812586510000      13.640000000000      50.000000000000
       466    3       14.765733130000      15.344999990000      50.000000000000
       467    3       11.812586510000      17.050000000000      50.000000000000
       468    3       14.765733130000      18.755000000000      50.000000000000
       469    3       11.812586510000      20.459999990000      50.000000000000
       470    3       14.765733130000      22.165000000000      50.000000000000
       471    3       11.812586510000      23.869999990000      50.000000000000
       472    3       14.765733130000      25.575000000000      50.000000000000
       473    3       17.718879760000      13.640000000000      50.000000000000
       474    3       20.672026390000      15.344999990000      50.000000000000
       475    3       17.718879760000      17.050000000000      50.000000000000
       476    3       20.672026390000      18.755000000000      50.000000000000
       477    3       17.718879760000      20.459999990000      50.000000000000
       478    3       20.672026390000      22.165000000000      50.000000000000
       479    3       17.718879760000      23.869999990000      50.000000000000
       480    3       20.672026390000      25.575000000000      50.000000000000
       481    2       24.609555220000      15.344999990000      50.000000000000
       482    2       27.562701850000      13.640000000000      50.000000000000
       483    2       24.609555220000      18.755000000000      50.000000000000
       484    2       27.562701850000      17.050000000000      50.000000000000
       485    2       24.609555220000      22.165000000000      50.000000000000
       486    2       27.562701850000      20.459999990000      50.000000000000
       487    2       24.609555220000      25.575000000000      50.000000000000
       488    2       27.562701850000      23.869999990000      50.000000000000
       489    2       30.515848480000      15.344999990000      50.000000000000
       490    2       33.468995110000      13.640000000000      50.000000000000
       491    2       30.515848480000      18.755000000000      50.000000000000
       492    2       33.468995110000      17.050000000000      50.000000000000
       493    2       30.515848480000      22.165000000000      50.000000000000
       494    2       33.468995110000      20.459999990000      50.000000000000
       495    2       30.515848480000      25.575000000000      50.000000000000
       496    2       33.468995110000      23.869999990000      50.000000000000
       497    3       23.625173020000      13.640000000000      50.000000000000
       498    3       26.578319640000      15.344999990000      50.000000000000
       499    3       23.625173020000      17.050000000000      50.000000000000
       500    3       26.578319640000      18.755000000000      50.000000000000
       501    3       23.625173020000      20.459999990000      50.000000000000
       502    3       26.578319640000      22.165000000000      50.000000000000
       503    3       23.625173020000      23.869999990000      50.000000000000
       504    3       26.578319640000      25.575000000000      50.000000000000
       505    3       29.531466270000      13.640000000000      50.000000000000
       506    3       32.484612890000      15.344999990000      50.000000000000
       507    3       29.531466270000      17.050000000000      50.000000000000
       508    3       32.484612890000      18.755000000000      50.000000000000
       509    3       29.531466270000      20.459999990000      50.000000000000
       510    3       32.484612890000      22.165000000000      50.000000000000
       511    3       29.531466270000      23.869999990000      50.000000000000
       512    3       32.484612890000      25.575000000000      50.000000000000
       513    1       36.422141730000      15.344999990000      50.000000000000
       514    2       39.375288360000      13.640000000000      50.000000000000
       515    2       36.422141730000      18.755000000000      50.000000000000
       516    2       39.375288360000      17.050000000000      50.000000000000
       517    2       36.422141730000      22.165000000000      50.000000000000
       518    2       39.375288360000      20.459999990000      50.000000000000
       519    2       36.422141730000      25.575000000000      50.000000000000
       520    2       39.375288360000      23.869999990000      50.000000000000
       521    2       42.328434990000      15.344999990000      50.000000000000
       522    2       45.281581620000      13.640000000000      50.000000000000
       523    2       42.328434990000      18.755000000000      50.000000000000
       524    2       45.281581620000      17.050000000000      50.000000000000
       525    2       42.328434990000      22.165000000000      50.000000000000
       526    2       45.281581620000      20.459999990000      50.000000000000
       527    2       42.328434990000      25.575000000000      50.000000000000
       528    2       45.281581620000      23.869999990000      50.000000000000
       529    3       35.437759530000      13.640000000000      50.000000000000
       530    3       38.390906150000      15.344999990000      50.000000000000
       531    3       35.437759530000      17.050000000000      50.000000000000
       532    3       38.390906150000      18.755000000000      50.000000000000
       533    3       35.437759530000      20.459999990000      50.000000000000
       534    3       38.390906150000      22.165000000000      50.000000000000
       535    3       35.437759530000      23.869999990000      50.000000000000
       536    3       38.390906150000      25.575000000000      50.000000000000
       537    3       41.344052780000      13.640000000000      50.000000000000
       538    3       44.297199400000      15.344999990000      50.000000000000
       539    3       41.344052780000      17.050000000000      50.000000000000
       540    3       44.297199400000      18.755000000000      50.000000000000
       541    3       41.344052780000      20.459999990000      50.000000000000
       542    3       44.297199400000      22.165000000000      50.000000000000
       543    3       41.344052780000      23.869999990000      50.000000000000
       544    3       44.297199400000      25.575000000000      50.000000000000
       545    1       48.234728240000      15.344999990000      50.000000000000
       546    2       51.187874870000      13.640000000000      50.000000000000
       547    1       48.234728240000      18.755000000000      50.000000000000
       548    2       51.187874870000      17.050000000000      50.000000000000
       549    2       48.234728240000      22.165000000000      50.000000000000
       550    1       51.187874870000      20.459999990000      50.000000000000
       551    2       48.234728240000      25.575000000000      50.000000000000
       552    2       51.187874870000      23.869999990000      50.000000000000
       553    2       54.141021490000      15.344999990000      50.000000000000
       554    2       57.094168130000      13.640000000000      50.000000000000
       555    2       54.141021490000      18.755000000000      50.000000000000
       556    2       57.094168130000      17.050000000000      50.000000000000
       557    2       54.141021490000      22.165000000000      50.000000000000
       558    2       57.094168130000      20.459999990000      50.000000000000
       559    1       54.141021490000      25.575000000000      50.000000000000
       560    1       57.094168130000      23.869999990000      50.000000000000
       561    3       47.250346040000      13.640000000000      50.000000000000
       562    3       50.203492660000      15.344999990000      50.000000000000
       563    3       47.250346040000      17.050000000000      50.000000000000
       564    3       50.203492660000      18.755000000000      50.000000000000
       565    3       47.250346040000      20.459999990000      50.000000000000
       566    3       50.203492660000      22.165000000000      50.000000000000
       567    3       47.250346040000      23.869999990000      50.000000000000
       568    3       50.203492660000      25.575000000000      50.000000000000
       569    3       53.156639290000      13.640000000000      50.000000000000
       570    3       56.109785910000      15.344999990000      50.000000000000
       571    3       53.156639290000      17.050000000000      50.000000000000
       572    3       56.109785910000      18.755000000000      50.000000000000
       573    3       53.156639290000      20.459999990000      50.000000000000
       574    3       56.109785910000      22.165000000000      50.000000000000
       575    3       53.156639290000      23.869999990000      50.000000000000
       576    3       56.109785910000      25.575000000000      50.000000000000
       577    2       60.047314750000      15.344999990000      50.000000000000
       578    2       63.000461380000      13.640000000000      50.000000000000
       579    2       60.047314750000      18.755000000000      50.000000000000
       580    2       63.000461380000      17.050000000000      50.000000000000
       581    2       60.047314750000      22.165000000000      50.000000000000
       582    1       63.000461380000      20.459999990000      50.000000000000
       583    2       60.047314750000      25.575000000000      50.000000000000
       584    2       63.000461380000      23.869999990000      50.000000000000
       585    2       65.953608000000      15.344999990000      50.000000000000
       586    2       68.906754640000      13.640000000000      50.000000000000
       587    2       65.953608000000      18.755000000000      50.000000000000
       588    2       68.906754640000      17.050000000000      50.000000000000
       589    2       65.953608000000      22.165000000000      50.000000000000
       590    2       68.906754640000      20.459999990000      50.000000000000
       591    2       65.953608000000      25.575000000000      50.000000000000
       592    1       68.906754640000      23.869999990000      50.000000000000
       593    3       59.062932550000      13.640000000000      50.000000000000
       594    3       62.016079170000      15.344999990000      50.000000000000
       595    3       59.062932550000      17.050000000000      50.000000000000
       596    3       62.016079170000      18.755000000000      50.000000000000
       597    3       59.062932550000      20.459999990000      50.000000000000
       598    3       62.016079170000      22.165000000000      50.000000000000
       599    3       59.062932550000      23.869999990000      50.000000000000
       600    3       62.016079170000      25.575000000000      50.000000000000
       601    3       64.969225800000      13.640000000000      50.000000000000
       602    3       67.922372420000      15.344999990000      50.000000000000
       603    3       64.969225800000      17.050000000000      50.000000000000
       604    3       67.922372420000      18.755000000000      50.000000000000
       605    3       64.969225800000      20.459999990000      50.000000000000
       606    3       67.922372420000      22.165000000000      50.000000000000
       607    3       64.969225800000      23.869999990000      50.000000000000
       608    3       67.922372420000      25.575000000000      50.000000000000
       609    1       71.859901260000      15.344999990000      50.000000000000
       610    2       74.813047890000      13.640000000000      50.000000000000
       611    2       71.859901260000      18.755000000000      50.000000000000
       612    2       74.813047890000      17.050000000000      50.000000000000
       613    1       71.859901260000      22.165000000000      50.000000000000
       614    2       74.813047890000      20.459999990000      50.000000000000
       615    2       71.859901260000      25.575000000000      50.000000000000
       616    2       74.813047890000      23.869999990000      50.000000000000
       617    2       77.766194510000      15.344999990000      50.000000000000
       618    2       80.719341150000      13.640000000000      50.000000000000
       619    2       77.766194510000      18.755000000000      50.000000000000
       620    2       80.719341150000      17.050000000000      50.000000000000
       621    2       77.766194510000      22.165000000000      50.000000000000
       622    1       80.719341150000      20.459999990000      50.000000000000
       623    2       77.766194510000      25.575000000000      50.000000000000
       624    2       80.719341150000      23.869999990000      50.000000000000
       625    3       70.875519050000      13.640000000000      50.000000000000
       626    3       73.828665680000      15.344999990000      50.000000000000
       627    3       70.875519050000      17.050000000000      50.000000000000
       628    3       73.828665680000      18.755000000000      50.000000000000
       629    3       70.875519050000      20.459999990000      50.000000000000
       630    3       73.828665680000      22.165000000000      50.000000000000
       631    3       70.875519050000      23.869999990000      50.000000000000
       632    3       73.828665680000      25.575000000000      50.000000000000
       633    3       76.781812310000      13.640000000000      50.000000000000
       634    3       79.734958930000      15.344999990000      50.000000000000
       635    3       76.781812310000      17.050000000000      50.000000000000
       636    3       79.734958930000      18.755000000000      50.000000000000
       637    3       76.781812310000      20.459999990000      50.000000000000
       638    3       79.734958930000      22.165000000000      50.000000000000
       639    3       76.781812310000      23.869999990000      50.000000000000
       640    3       79.734958930000      25.575000000000      50.000000000000
       641    2       83.672487770000      15.344999990000      50.000000000000
       642    2       86.625634400000      13.640000000000      50.000000000000
       643    2       83.672487770000      18.755000000000      50.000000000000
       644    1       86.625634400000      17.050000000000      50.000000000000
       645    2       83.672487770000      22.165000000000      50.000000000000
       646    2       86.625634400000      20.459999990000      50.000000000000
       647    2       83.672487770000      25.575000000000      50.000000000000
       648    2       86.625634400000      23.869999990000      50.000000000000
       649    2       89.578781020000      15.344999990000      50.000000000000
       650    2       92.531927650000      13.640000000000      50.000000000000
       651    2       89.578781020000      18.755000000000      50.000000000000
       652    2       92.531927650000      17.050000000000      50.000000000000
       653    2       89.578781020000      22.165000000000      50.000000000000
       654    2       92.531927650000      20.459999990000      50.000000000000
       655    2       89.578781020000      25.575000000000      50.000000000000
       656    2       92.531927650000      23.869999990000      50.000000000000
       657    3       82.688105560000      13.640000000000      50.000000000000
       658    3       85.641252190000      15.344999990000      50.000000000000
       659    3       82.688105560000      17.050000000000      50.000000000000
       660    3       85.641252190000      18.755000000000      50.000000000000
       661    3       82.688105560000      20.459999990000      50.000000000000
       662    3       85.641252190000      22.165000000000      50.000000000000
       663    3       82.688105560000      23.869999990000      50.000000000000
       664    3       85.641252190000      25.575000000000      50.000000000000
       665    3       88.594398820000      13.640000000000      50.000000000000
       666    3       91.547545440000      15.344999990000      50.000000000000
       667    3       88.594398820000      17.050000000000      50.000000000000
       668    3       91.547545440000      18.755000000000      50.000000000000
       669    3       88.594398820000      20.459999990000      50.000000000000
       670    3       91.547545440000      22.165000000000      50.000000000000
       671    3       88.594398820000      23.869999990000      50.000000000000
       672    3       91.547545440000      25.575000000000      50.000000000000
       673    2       95.485074280000      15.344999990000      50.000000000000
       674    2       98.438220910000      13.640000000000      50.000000000000
       675    2       95.485074280000      18.755000000000      50.000000000000
       676    1       98.438220910000      17.050000000000      50.000000000000
       677    2       95.485074280000      22.165000000000      50.000000000000
       678    2       98.438220910000      20.459999990000      50.000000000000
       679    2       95.485074280000      25.575000000000      50.000000000000
       680    2       98.438220910000      23.869999990000      50.000000000000
       681    2      101.391367530000      15.344999990000      50.000000000000
       682    2      104.344514160000      13.640000000000      50.000000000000
       683    2      101.391367530000      18.755000000000      50.000000000000
       684    2      104.344514160000      17.050000000000      50.000000000000
       685    2      101.391367530000      22.165000000000      50.000000000000
       686    1      104.344514160000      20.459999990000      50.000000000000
       687    2      101.391367530000      25.575000000000      50.000000000000
       688    2      104.344514160000      23.869999990000      50.000000000000
       689    3       94.500692070000      13.640000000000      50.000000000000
       690    3       97.453838690000      15.344999990000      50.000000000000
       691    3       94.500692070000      17.050000000000      50.000000000000
       692    3       97.453838690000      18.755000000000      50.000000000000
       693    3       94.500692070000      20.459999990000      50.000000000000
       694    3       97.453838690000      22.165000000000      50.000000000000
       695    3       94.500692070000      23.869999990000      50.000000000000
       696    3       97.453838690000      25.575000000000      50.000000000000
       697    3      100.406985330000      13.640000000000      50.000000000000
       698    3      103.360131950000      15.344999990000      50.000000000000
       699    3      100.406985330000      17.050000000000      50.000000000000
       700    3      103.360131950000      18.755000000000      50.000000000000
       701    3      100.406985330000      20.459999990000      50.000000000000
       702    3      103.360131950000      22.165000000000      50.000000000000
       703    3      100.406985330000      23.869999990000      50.000000000000
       704    3      103.360131950000      25.575000000000      50.000000000000
       705    2      107.297660790000      15.344999990000      50.000000000000
       706    2      110.250807420000      13.640000000000      50.000000000000
       707    2      107.297660790000      18.755000000000      50.000000000000
       708    2      110.250807420000      17.050000000000      50.000000000000
       709    2      107.297660790000      22.165000000000      50.000000000000
       710    2      110.250807420000      20.459999990000      50.000000000000
       711    2      107.297660790000      25.575000000000      50.000000000000
       712    2      110.250807420000      23.869999990000      50.000000000000
       713    2      113.203954040000      15.344999990000      50.000000000000
       714    2      116.157100670000      13.640000000000      50.000000000000
       715    2      113.203954040000      18.755000000000      50.000000000000
       716    2      116.157100670000      17.050000000000      50.000000000000
       717    2      113.203954040000      22.165000000000      50.000000000000
       718    2      116.157100670000      20.459999990000      50.000000000000
       719    2      113.203954040000      25.575000000000      50.000000000000
       720    1      116.157100670000      23.869999990000      50.000000000000
       721    3      106.313278580000      13.640000000000      50.000000000000
       722    3      109.266425200000      15.344999990000      50.000000000000
       723    3      106.313278580000      17.050000000000      50.000000000000
       724    3      109.266425200000      18.755000000000      50.000000000000
       725    3      106.313278580000      20.459999990000      50.000000000000
       726    3      109.266425200000      22.165000000000      50.000000000000
       727    3      106.313278580000      23.869999990000      50.000000000000
       728    3      109.266425200000      25.575000000000      50.000000000000
       729    3      112.219571840000      13.640000000000      50.000000000000
       730    3      115.172718460000      15.344999990000      50.000000000000
       731    3      112.219571840000      17.050000000000      50.000000000000
       732    3      115.172718460000      18.755000000000      50.000000000000
       733    3      112.219571840000      20.459999990000      50.000000000000
       734    3      115.172718460000      22.165000000000      50.000000000000
       735    3      112.219571840000      23.869999990000      50.000000000000
       736    3      115.172718460000      25.575000000000      50.000000000000
       737    2      119.110247290000      15.344999990000      50.000000000000
       738    2      122.063393930000      13.640000000000      50.000000000000
       739    2      119.110247290000      18.755000000000      50.000000000000
       740    2      122.063393930000      17.050000000000      50.000000000000
       741    2      119.110247290000      22.165000000000      50.000000000000
       742    1      122.063393930000      20.459999990000      50.000000000000
       743    2      119.110247290000      25.575000000000      50.000000000000
       744    2      122.063393930000      23.869999990000      50.000000000000
       745    2      125.016540550000      15.344999990000      50.000000000000
       746    2      127.969687180000      13.640000000000      50.000000000000
       747    2      125.016540550000      18.755000000000      50.000000000000
       748    2      127.969687180000      17.050000000000      50.000000000000
       749    2      125.016540550000      22.165000000000      50.000000000000
       750    2      127.969687180000      20.459999990000      50.000000000000
       751    2      125.016540550000      25.575000000000      50.000000000000
       752    2      127.969687180000      23.869999990000      50.000000000000
       753    3      118.125865090000      13.640000000000      50.000000000000
       754    3      121.079011710000      15.344999990000      50.000000000000
       755    3      118.125865090000      17.050000000000      50.000000000000
       756    3      121.079011710000      18.755000000000      50.000000000000
       757    3      118.125865090000      20.459999990000      50.000000000000
       758    3      121.079011710000      22.165000000000      50.000000000000
       759    3      118.125865090000      23.869999990000      50.000000000000
       760    3      121.079011710000      25.575000000000      50.000000000000
       761    3      124.032158350000      13.640000000000      50.000000000000
       762    3      126.985304970000      15.344999990000      50.000000000000
       763    3      124.032158350000      17.050000000000      50.000000000000
       764    3      126.985304970000      18.755000000000      50.000000000000
       765    3      124.032158350000      20.459999990000      50.000000000000
       766    3      126.985304970000      22.165000000000      50.000000000000
       767    3      124.032158350000      23.869999990000      50.000000000000
       768    3      126.985304970000      25.575000000000      50.000000000000
       769    2      130.922833800000      15.344999990000      50.000000000000
       770    2      133.875980440000      13.640000000000      50.000000000000
       771    2      130.922833800000      18.755000000000      50.000000000000
       772    2      133.875980440000      17.050000000000      50.000000000000
       773    2      130.922833800000      22.165000000000      50.000000000000
       774    2      133.875980440000      20.459999990000      50.000000000000
       775    2      130.922833800000      25.575000000000      50.000000000000
       776    2      133.875980440000      23.869999990000      50.000000000000
       777    2      136.829127060000      15.344999990000      50.000000000000
       778    2      139.782273690000      13.640000000000      50.000000000000
       779    2      136.829127060000      18.755000000000      50.000000000000
       780    2      139.782273690000      17.050000000000      50.000000000000
       781    1      136.829127060000      22.165000000000      50.000000000000
       782    1      139.782273690000      20.459999990000      50.000000000000
       783    1      136.829127060000      25.575000000000      50.000000000000
       784    2      139.782273690000      23.869999990000      50.000000000000
       785    3      129.938451600000      13.640000000000      50.000000000000
       786    3      132.891598220000      15.344999990000      50.000000000000
       787    3      129.938451600000      17.050000000000      50.000000000000
       788    3      132.891598220000      18.755000000000      50.000000000000
       789    3      129.938451600000      20.459999990000      50.000000000000
       790    3      132.891598220000      22.165000000000      50.000000000000
       791    3      129.938451600000      23.869999990000      50.000000000000
       792    3      132.891598220000      25.575000000000      50.000000000000
       793    3      135.844744850000      13.640000000000      50.000000000000
       794    3      138.797891480000      15.344999990000      50.000000000000
       795    3      135.844744850000      17.050000000000      50.000000000000
       796    3      138.797891480000      18.755000000000      50.000000000000
       797    3      135.844744850000      20.459999990000      50.000000000000
       798    3      138.797891480000      22.165000000000      50.000000000000
       799    3      135.844744850000      23.869999990000      50.000000000000
       800    3      138.797891480000      25.575000000000      50.000000000000
       801    2      142.735420310000      15.344999990000      50.000000000000
       802    2      145.688566950000      13.640000000000      50.000000000000
       803    2      142.735420310000      18.755000000000      50.000000000000
       804    2      145.688566950000      17.050000000000      50.000000000000
       805    2      142.735420310000      22.165000000000      50.000000000000
       806    2      145.688566950000      20.459999990000      50.000000000000
       807    2      142.735420310000      25.575000000000      50.000000000000
       808    1      145.688566950000      23.869999990000      50.000000000000
       809    2      148.641713570000      15.344999990000      50.000000000000
       810    2      151.594860200000      13.640000000000      50.000000000000
       811    2      148.641713570000      18.755000000000      50.000000000000
       812    2      151.594860200000      17.050000000000      50.000000000000
       813    2      148.641713570000      22.165000000000      50.000000000000
       814    2      151.594860200000      20.459999990000      50.000000000000
       815    2      148.641713570000      25.575000000000      50.000000000000
       816    2      151.594860200000      23.869999990000      50.000000000000
       817    3      141.751038110000      13.640000000000      50.000000000000
       818    3      144.704184730000      15.344999990000      50.000000000000
       819    3      141.751038110000      17.050000000000      50.000000000000
       820    3      144.704184730000      18.755000000000      50.000000000000
       821    3      141.751038110000      20.459999990000      50.000000000000
       822    3      144.704184730000      22.165000000000      50.000000000000
       823    3      141.751038110000      23.869999990000      50.000000000000
       824    3      144.704184730000      25.575000000000      50.000000000000
       825    3      147.657331360000      13.640000000000      50.000000000000
       826    3      150.610477990000      15.344999990000      50.000000000000
       827    3      147.657331360000      17.050000000000      50.000000000000
       828    3      150.610477990000      18.755000000000      50.000000000000
       829    3      147.657331360000      20.459999990000      50.000000000000
       830    3      150.610477990000      22.165000000000      50.000000000000
       831    3      147.657331360000      23.869999990000      50.000000000000
       832    3      150.610477990000      25.575000000000      50.000000000000
       833    2        0.984382200000      28.984999990000      50.000000000000
       834    2        3.937528840000      27.280000000000      50.000000000000
       835    2        0.984382200000      32.394999990000      50.000000000000
       836    2        3.937528840000      30.690000000000      50.000000000000
       837    2        0.984382200000      35.805000000000      50.000000000000
       838    2        3.937528840000      34.099999990000      50.000000000000
       839    2        0.984382200000      39.215000000000      50.000000000000
       840    2        3.937528840000      37.509999990000      50.000000000000
       841    1        6.890675460000      28.984999990000      50.000000000000
       842    2        9.843822090000      27.280000000000      50.000000000000
       843    2        6.890675460000      32.394999990000      50.000000000000
       844    2        9.843822090000      30.690000000000      50.000000000000
       845    2        6.890675460000      35.805000000000      50.000000000000
       846    2        9.843822090000      34.099999990000      50.000000000000
       847    2        6.890675460000      39.215000000000      50.000000000000
       848    2        9.843822090000      37.509999990000      50.000000000000
       849    3        0.000000000000      27.280000000000      50.000000000000
       850    3        2.953146620000      28.984999990000      50.000000000000
       851    3        0.000000000000      30.690000000000      50.000000000000
       852    3        2.953146620000      32.394999990000      50.000000000000
       853    3        0.000000000000      34.099999990000      50.000000000000
       854    3        2.953146620000      35.805000000000      50.000000000000
       855    3        0.000000000000      37.509999990000      50.000000000000
       856    3        2.953146620000      39.215000000000      50.000000000000
       857    3        5.906293250000      27.280000000000      50.000000000000
       858    3        8.859439880000      28.984999990000      50.000000000000
       859    3        5.906293250000      30.690000000000      50.000000000000
       860    3        8.859439880000      32.394999990000      50.000000000000
       861    3        5.906293250000      34.099999990000      50.000000000000
       862    3        8.859439880000      35.805000000000      50.000000000000
       863    3        5.906293250000      37.509999990000      50.000000000000
       864    3        8.859439880000      39.215000000000      50.000000000000
       865    2       12.796968710000      28.984999990000      50.000000000000
       866    2       15.750115350000      27.280000000000      50.000000000000
       867    2       12.796968710000      32.394999990000      50.000000000000
       868    2       15.750115350000      30.690000000000      50.000000000000
       869    2       12.796968710000      35.805000000000      50.000000000000
       870    2       15.750115350000      34.099999990000      50.000000000000
       871    2       12.796968710000      39.215000000000      50.000000000000
       872    2       15.750115350000      37.509999990000      50.000000000000
       873    2       18.703261970000      28.984999990000      50.000000000000
       874    2       21.656408600000      27.280000000000      50.000000000000
       875    2       18.703261970000      32.394999990000      50.000000000000
       876    2       21.656408600000      30.690000000000      50.000000000000
       877    2       18.703261970000      35.805000000000      50.000000000000
       878    2       21.656408600000      34.099999990000      50.000000000000
       879    2       18.703261970000      39.215000000000      50.000000000000
       880    2       21.656408600000      37.509999990000      50.000000000000
       881    3       11.812586510000      27.280000000000      50.000000000000
       882    3       14.765733130000      28.984999990000      50.000000000000
       883    3       11.812586510000      30.690000000000      50.000000000000
       884    3       14.765733130000      32.394999990000      50.000000000000
       885    3       11.812586510000      34.099999990000      50.000000000000
       886    3       14.765733130000      35.805000000000      50.000000000000
       887    3       11.812586510000      37.509999990000      50.000000000000
       888    3       14.765733130000      39.215000000000      50.000000000000
       889    3       17.718879760000      27.280000000000      50.000000000000
       890    3       20.672026390000      28.984999990000      50.000000000000
       891    3       17.718879760000      30.690000000000      50.000000000000
       892    3       20.672026390000      32.394999990000      50.000000000000
       893    3       17.718879760000      34.099999990000      50.000000000000
       894    3       20.672026390000      35.805000000000      50.000000000000
       895    3       17.718879760000      37.509999990000      50.000000000000
       896    3       20.672026390000      39.215000000000      50.000000000000
       897    2       24.609555220000      28.984999990000      50.000000000000
       898    2       27.562701850000      27.280000000000      50.000000000000
       899    2       24.609555220000      32.394999990000      50.000000000000
       900    2       27.562701850000      30.690000000000      50.000000000000
       901    2       24.609555220000      35.805000000000      50.000000000000
       902    2       27.562701850000      34.099999990000      50.000000000000
       903    1       24.609555220000      39.215000000000      50.000000000000
       904    2       27.562701850000      37.509999990000      50.000000000000
       905    2       30.515848480000      28.984999990000      50.000000000000
       906    2       33.468995110000      27.280000000000      50.000000000000
       907    2       30.515848480000      32.394999990000      50.000000000000
       908    2       33.468995110000      30.690000000000      50.000000000000
       909    2       30.515848480000      35.805000000000      50.000000000000
       910    2       33.468995110000      34.099999990000      50.000000000000
       911    2       30.515848480000      39.215000000000      50.000000000000
       912    2       33.468995110000      37.509999990000      50.000000000000
       913    3       23.625173020000      27.280000000000      50.000000000000
       914    3       26.578319640000      28.984999990000      50.000000000000
       915    3       23.625173020000      30.690000000000      50.000000000000
       916    3       26.578319640000      32.394999990000      50.000000000000
       917    3       23.625173020000      34.099999990000      50.000000000000
       918    3       26.578319640000      35.805000000000      50.000000000000
       919    3       23.625173020000      37.509999990000      50.000000000000
       920    3       26.578319640000      39.215000000000      50.000000000000
       921    3       29.531466270000      27.280000000000      50.000000000000
       922    3       32.484612890000      28.984999990000      50.000000000000
       923    3       29.531466270000      30.690000000000      50.000000000000
       924    3       32.484612890000      32.394999990000      50.000000000000
       925    3       29.531466270000      34.099999990000      50.000000000000
       926    3       32.484612890000      35.805000000000      50.000000000000
       927    3       29.531466270000      37.509999990000      50.000000000000
       928    3       32.484612890000      39.215000000000      50.000000000000
       929    2       36.422141730000      28.984999990000      50.000000000000
       930    2       39.375288360000      27.280000000000      50.000000000000
       931    2       36.422141730000      32.394999990000      50.000000000000
       932    2       39.375288360000      30.690000000000      50.000000000000
       933    2       36.422141730000      35.805000000000      50.000000000000
       934    2       39.375288360000      34.099999990000      50.000000000000
       935    2       36.422141730000      39.215000000000      50.000000000000
       936    2       39.375288360000      37.509999990000      50.000000000000
       937    2       42.328434990000      28.984999990000      50.000000000000
       938    2       45.281581620000      27.280000000000      50.000000000000
       939    2       42.328434990000      32.394999990000      50.000000000000
       940    2       45.281581620000      30.690000000000      50.000000000000
       941    2       42.328434990000      35.805000000000      50.000000000000
       942    1       45.281581620000      34.099999990000      50.000000000000
       943    1       42.328434990000      39.215000000000      50.000000000000
       944    2       45.281581620000      37.509999990000      50.000000000000
       945    3       35.437759530000      27.280000000000      50.000000000000
       946    3       38.390906150000      28.984999990000      50.000000000000
       947    3       35.437759530000      30.690000000000      50.000000000000
       948    3       38.390906150000      32.394999990000      50.000000000000
       949    3       35.437759530000      34.099999990000      50.000000000000
       950    3       38.390906150000      35.805000000000      50.000000000000
       951    3       35.437759530000      37.509999990000      50.000000000000
       952    3       38.390906150000      39.215000000000      50.000000000000
       953    3       41.344052780000      27.280000000000      50.000000000000
       954    3       44.297199400000      28.984999990000      50.000000000000
       955    3       41.344052780000      30.690000000000      50.000000000000
       956    3       44.297199400000      32.394999990000      50.000000000000
       957    3       41.344052780000      34.099999990000      50.000000000000
       958    3       44.297199400000      35.805000000000      50.000000000000
       959    3       41.344052780000      37.509999990000      50.000000000000
       960    3       44.297199400000      39.215000000000      50.000000000000
       961    2       48.234728240000      28.984999990000      50.000000000000
       962    2       51.187874870000      27.280000000000      50.000000000000
       963    2       48.234728240000      32.394999990000      50.000000000000
       964    2       51.187874870000      30.690000000000      50.000000000000
       965    1       48.234728240000      35.805000000000      50.000000000000
       966    2       51.187874870000      34.099999990000      50.000000000000
       967    2       48.234728240000      39.215000000000      50.000000000000
       968    1       51.187874870000      37.509999990000      50.000000000000
       969    2       54.141021490000      28.984999990000      50.000000000000
       970    2       57.094168130000      27.280000000000      50.000000000000
       971    2       54.141021490000      32.394999990000      50.000000000000
       972    2       57.094168130000      30.690000000000      50.000000000000
       973    2       54.141021490000      35.805000000000      50.000000000000
       974    2       57.094168130000      34.099999990000      50.000000000000
       975    2       54.141021490000      39.215000000000      50.000000000000
       976    2       57.094168130000      37.509999990000      50.000000000000
       977    3       47.250346040000      27.280000000000      50.000000000000
       978    3       50.203492660000      28.984999990000      50.000000000000
       979    3       47.250346040000      30.690000000000      50.000000000000
       980    3       50.203492660000      32.394999990000      50.000000000000
       981    3       47.250346040000      34.099999990000      50.000000000000
       982    3       50.203492660000      35.805000000000      50.000000000000
       983    3       47.250346040000      37.509999990000      50.000000000000
       984    3       50.203492660000      39.215000000000      50.000000000000
       985    3       53.156639290000      27.280000000000      50.000000000000
       986    3       56.109785910000      28.984999990000      50.000000000000
       987    3       53.156639290000      30.690000000000      50.000000000000
       988    3       56.109785910000      32.394999990000      50.000000000000
       989    3       53.156639290000      34.099999990000      50.000000000000
       990    3       56.109785910000      35.805000000000      50.000000000000
       991    3       53.156639290000      37.509999990000      50.000000000000
       992    3       56.109785910000      39.215000000000      50.000000000000
       993    2       60.047314750000      28.984999990000      50.000000000000
       994    2       63.000461380000      27.280000000000      50.000000000000
       995    2       60.047314750000      32.394999990000      50.000000000000
       996    2       63.000461380000      30.690000000000      50.000000000000
       997    2       60.047314750000      35.805000000000      50.000000000000
       998    2       63.000461380000      34.099999990000      50.000000000000
       999    2       60.047314750000      39.215000000000      50.000000000000
      1000    2       63.000461380000      37.509999990000      50.000000000000
      1001    2       65.953608000000      28.984999990000      50.000000000000
      1002    2       68.906754640000      27.280000000000      50.000000000000
      1003    1       65.953608000000      32.394999990000      50.000000000000
      1004    2       68.906754640000      30.690000000000      50.000000000000
      1005    2       65.953608000000      35.805000000000      50.000000000000
      1006    2       68.906754640000      34.099999990000      50.000000000000
      1007    2       65.953608000000      39.215000000000      50.000000000000
      1008    2       68.906754640000      37.509999990000      50.000000000000
      1009    3       59.062932550000      27.280000000000      50.000000000000
      1010    3       62.016079170000      28.984999990000      50.000000000000
      1011    3       59.062932550000      30.690000000000      50.000000000000
      1012    3       62.016079170000      32.394999990000      50.000000000000
      1013    3       59.062932550000      34.099999990000      50.000000000000
      1014    3       62.016079170000      35.805000000000      50.000000000000
      1015    3       59.062932550000      37.509999990000      50.000000000000
      1016    3       62.016079170000      39.215000000000      50.000000000000
      1017    3       64.969225800000      27.280000000000      50.000000000000
      1018    3       67.922372420000      28.984999990000      50.000000000000
      1019    3       64.969225800000      30.690000000000      50.000000000000
      1020    3       67.922372420000      32.394999990000      50.000000000000
      1021    3       64.969225800000      34.099999990000      50.000000000000
      1022    3       67.922372420000      35.805000000000      50.000000000000
      1023    3       64.969225800000      37.509999990000      50.000000000000
      1024    3       67.922372420000      39.215000000000      50.000000000000
      1025    1       71.859901260000      28.984999990000      50.000000000000
      1026    2       74.813047890000      27.280000000000      50.000000000000
      1027    2       71.859901260000      32.394999990000      50.000000000000
      1028    2       74.813047890000      30.690000000000      50.000000000000
      1029    2       71.859901260000      35.805000000000      50.000000000000
      1030    2       74.813047890000      34.099999990000      50.000000000000
      1031    2       71.859901260000      39.215000000000      50.000000000000
      1032    2       74.813047890000      37.509999990000      50.000000000000
      1033    2       77.766194510000      28.984999990000      50.000000000000
      1034    2       80.719341150000      27.280000000000      50.000000000000
      1035    2       77.766194510000      32.394999990000      50.000000000000
      1036    2       80.719341150000      30.690000000000      50.000000000000
      1037    2       77.766194510000      35.805000000000      50.000000000000
      1038    2       80.719341150000      34.099999990000      50.000000000000
      1039    2       77.766194510000      39.215000000000      50.000000000000
      1040    2       80.719341150000      37.509999990000      50.000000000000
      1041    3       70.875519050000      27.280000000000      50.000000000000
      1042    3       73.828665680000      28.984999990000      50.000000000000
      1043    3       70.875519050000      30.690000000000      50.000000000000
      1044    3       73.828665680000      32.394999990000      50.000000000000
      1045    3       70.875519050000      34.099999990000      50.000000000000
      1046    3       73.828665680000      35.805000000000      50.000000000000
      1047    3       70.875519050000      37.509999990000      50.000000000000
      1048    3       73.828665680000      39.215000000000      50.000000000000
      1049    3       76.781812310000      27.280000000000      50.000000000000
      1050    3       79.734958930000      28.984999990000      50.000000000000
      1051    3       76.781812310000      30.690000000000      50.000000000000
      1052    3       79.734958930000      32.394999990000      50.000000000000
      1053    3       76.781812310000      34.099999990000      50.000000000000
      1054    3       79.734958930000      35.805000000000      50.000000000000
      1055    3       76.781812310000      37.509999990000      50.000000000000
      1056    3       79.734958930000      39.215000000000      50.000000000000
      1057    2       83.672487770000      28.984999990000      50.000000000000
      1058    2       86.625634400000      27.280000000000      50.000000000000
      1059    2       83.672487770000      32.394999990000      50.000000000000
      1060    2       86.625634400000      30.690000000000      50.000000000000
      1061    2       83.672487770000      35.805000000000      50.000000000000
      1062    1       86.625634400000      34.099999990000      50.000000000000
      1063    2       83.672487770000      39.215000000000      50.000000000000
      1064    2       86.625634400000      37.509999990000      50.000000000000
      1065    2       89.578781020000      28.984999990000      50.000000000000
      1066    1       92.531927650000      27.280000000000      50.000000000000
      1067    2       89.578781020000      32.394999990000      50.000000000000
      1068    2       92.531927650000      30.690000000000      50.000000000000
      1069    2       89.578781020000      35.805000000000      50.000000000000
      1070    2       92.531927650000      34.099999990000      50.000000000000
      1071    2       89.578781020000      39.215000000000      50.000000000000
      1072    2       92.531927650000      37.509999990000      50.000000000000
      1073    3       82.688105560000      27.280000000000      50.000000000000
      1074    3       85.641252190000      28.984999990000      50.000000000000
      1075    3       82.688105560000      30.690000000000      50.000000000000
      1076    3       85.641252190000      32.394999990000      50.000000000000
      1077    3       82.688105560000      34.099999990000      50.000000000000
      1078    3       85.641252190000      35.805000000000      50.000000000000
      1079    3       82.688105560000      37.509999990000      50.000000000000
      1080    3       85.641252190000      39.215000000000      50.000000000000
      1081    3       88.594398820000      27.280000000000      50.000000000000
      1082    3       91.547545440000      28.984999990000      50.000000000000
      1083    3       88.594398820000      30.690000000000      50.000000000000
      1084    3       91.547545440000      32.394999990000      50.000000000000
      1085    3       88.594398820000      34.099999990000      50.000000000000
      1086    3       91.547545440000      35.805000000000      50.000000000000
      1087    3       88.594398820000      37.509999990000      50.000000000000
      1088    3       91.547545440000      39.215000000000      50.000000000000
      1089    2       95.485074280000      28.984999990000      50.000000000000
      1090    2       98.438220910000      27.280000000000      50.000000000000
      1091    2       95.485074280000      32.394999990000      50.000000000000
      1092    2       98.438220910000      30.690000000000      50.000000000000
      1093    2       95.485074280000      35.805000000000      50.000000000000
      1094    2       98.438220910000      34.099999990000      50.000000000000
      1095    2       95.485074280000      39.215000000000      50.000000000000
      1096    2       98.438220910000      37.509999990000      50.000000000000
      1097    2      101.391367530000      28.984999990000      50.000000000000
      1098    2      104.344514160000      27.280000000000      50.000000000000
      1099    2      101.391367530000      32.394999990000      50.000000000000
      1100    2      104.344514160000      30.690000000000      50.000000000000
      1101    2      101.391367530000      35.805000000000      50.000000000000
      1102    2      104.344514160000      34.099999990000      50.000000000000
      1103    2      101.391367530000      39.215000000000      50.000000000000
      1104    2      104.344514160000      37.509999990000      50.000000000000
      1105    3       94.500692070000      27.280000000000      50.000000000000
      1106    3       97.453838690000      28.984999990000      50.000000000000
      1107    3       94.500692070000      30.690000000000      50.000000000000
      1108    3       97.453838690000      32.394999990000      50.000000000000
      1109    3       94.500692070000      34.099999990000      50.000000000000
      1110    3       97.453838690000      35.805000000000      50.000000000000
      1111    3       94.500692070000      37.509999990000      50.000000000000
      1112    3       97.453838690000      39.215000000000      50.000000000000
      1113    3      100.406985330000      27.280000000000      50.000000000000
      1114    3      103.360131950000      28.984999990000      50.000000000000
      1115    3      100.406985330000      30.690000000000      50.000000000000
      1116    3      103.360131950000      32.394999990000      50.000000000000
      1117    3      100.406985330000      34.099999990000      50.000000000000
      1118    3      103.360131950000      35.805000000000      50.000000000000
      1119    3      100.406985330000      37.509999990000      50.000000000000
      1120    3      103.360131950000      39.215000000000      50.000000000000
      1121    2      107.297660790000      28.984999990000      50.000000000000
      1122    1      110.250807420000      27.280000000000      50.000000000000
      1123    2      107.297660790000      32.394999990000      50.000000000000
      1124    2      110.250807420000      30.690000000000      50.000000000000
      1125    2      107.297660790000      35.805000000000      50.000000000000
      1126    2      110.250807420000      34.099999990000      50.000000000000
      1127    2      107.297660790000      39.215000000000      50.000000000000
      1128    2      110.250807420000      37.509999990000      50.000000000000
      1129    2      113.203954040000      28.984999990000      50.000000000000
      1130    2      116.157100670000      27.280000000000      50.000000000000
      1131    1      113.203954040000      32.394999990000      50.000000000000
      1132    2      116.157100670000      30.690000000000      50.000000000000
      1133    1      113.203954040000      35.805000000000      50.000000000000
      1134    2      116.157100670000      34.099999990000      50.000000000000
      1135    2      113.203954040000      39.215000000000      50.000000000000
      1136    2      116.157100670000      37.509999990000      50.000000000000
      1137    3      106.313278580000      27.280000000000      50.000000000000
      1138    3      109.266425200000      28.984999990000      50.000000000000
      1139    3      106.313278580000      30.690000000000      50.000000000000
      1140    3      109.266425200000      32.394999990000      50.000000000000
      1141    3      106.313278580000      34.099999990000      50.000000000000
      1142    3      109.266425200000      35.805000000000      50.000000000000
      1143    3      106.313278580000      37.509999990000      50.000000000000
      1144    3      109.266425200000      39.215000000000      50.000000000000
      1145    3      112.219571840000      27.280000000000      50.000000000000
      1146    3      115.172718460000      28.984999990000      50.000000000000
      1147    3      112.219571840000      30.690000000000      50.000000000000
      1148    3      115.172718460000      32.394999990000      50.000000000000
      1149    3      112.219571840000      34.099999990000      50.000000000000
      1150    3      115.172718460000      35.805000000000      50.000000000000
      1151    3      112.219571840000      37.509999990000      50.000000000000
      1152    3      115.172718460000      39.215000000000      50.000000000000
      1153    2      119.110247290000      28.984999990000      50.000000000000
      1154    2      122.063393930000      27.280000000000      50.000000000000
      1155    2      119.110247290000      32.394999990000      50.000000000000
      1156    2      122.063393930000      30.690000000000      50.000000000000
      1157    2      119.110247290000      35.805000000000      50.000000000000
      1158    2      122.063393930000      34.099999990000      50.000000000000
      1159    2      119.110247290000      39.215000000000      50.000000000000
      1160    2      122.063393930000      37.509999990000      50.000000000000
      1161    2      125.016540550000      28.984999990000      50.000000000000
      1162    2      127.969687180000      27.280000000000      50.000000000000
      1163    2      125.016540550000      32.394999990000      50.000000000000
      1164    1      127.969687180000      30.690000000000      50.000000000000
      1165    2      125.016540550000      35.805000000000      50.000000000000
      1166    2      127.969687180000      34.099999990000      50.000000000000
      1167    2      125.016540550000      39.215000000000      50.000000000000
      1168    2      127.969687180000      37.509999990000      50.000000000000
      1169    3      118.125865090000      27.280000000000      50.000000000000
      1170    3      121.079011710000      28.984999990000      50.000000000000
      1171    3      118.125865090000      30.690000000000      50.000000000000
      1172    3      121.079011710000      32.394999990000      50.000000000000
      1173    3      118.125865090000      34.099999990000      50.000000000000
      1174    3      121.079011710000      35.805000000000      50.000000000000
      1175    3      118.125865090000      37.509999990000      50.000000000000
      1176    3      121.079011710000      39.215000000000      50.000000000000
      1177    3      124.032158350000      27.280000000000      50.000000000000
      1178    3      126.985304970000      28.984999990000      50.000000000000
      1179    3      124.032158350000      30.690000000000      50.000000000000
      1180    3      126.985304970000      32.394999990000      50.000000000000
      1181    3      124.032158350000      34.099999990000      50.000000000000
      1182    3      126.985304970000      35.805000000000      50.000000000000
      1183    3      124.032158350000      37.509999990000      50.000000000000
      1184    3      126.985304970000      39.215000000000      50.000000000000
      1185    2      130.922833800000      28.984999990000      50.000000000000
      1186    2      133.875980440000      27.280000000000      50.000000000000
      1187    2      130.922833800000      32.394999990000      50.000000000000
      1188    2      133.875980440000      30.690000000000      50.000000000000
      1189    2      130.922833800000      35.805000000000      50.000000000000
      1190    2      133.875980440000      34.099999990000      50.000000000000
      1191    2      130.922833800000      39.215000000000      50.000000000000
      1192    2      133.875980440000      37.509999990000      50.000000000000
      1193    1      136.829127060000      28.984999990000      50.000000000000
      1194    2      139.782273690000      27.280000000000      50.000000000000
      1195    1      136.829127060000      32.394999990000      50.000000000000
      1196    1      139.782273690000      30.690000000000      50.000000000000
      1197    2      136.829127060000      35.805000000000      50.000000000000
      1198    2      139.782273690000      34.099999990000      50.000000000000
      1199    2      136.829127060000      39.215000000000      50.000000000000
      1200    2      139.782273690000      37.509999990000      50.000000000000
      1201    3      129.938451600000      27.280000000000      50.000000000000
      1202    3      132.891598220000      28.984999990000      50.000000000000
      1203    3      129.938451600000      30.690000000000      50.000000000000
      1204    3      132.891598220000      32.394999990000      50.000000000000
      1205    3      129.938451600000      34.099999990000      50.000000000000
      1206    3      132.891598220000      35.805000000000      50.000000000000
      1207    3      129.938451600000      37.509999990000      50.000000000000
      1208    3      132.891598220000      39.215000000000      50.000000000000
      1209    3      135.844744850000      27.280000000000      50.000000000000
      1210    3      138.797891480000      28.984999990000      50.000000000000
      1211    3      135.844744850000      30.690000000000      50.000000000000
      1212    3      138.797891480000      32.394999990000      50.000000000000
      1213    3      135.844744850000      34.099999990000      50.000000000000
      1214    3      138.797891480000      35.805000000000      50.000000000000
      1215    3      135.844744850000      37.509999990000      50.000000000000
      1216    3      138.797891480000      39.215000000000      50.000000000000
      1217    2      142.735420310000      28.984999990000      50.000000000000
      1218    1      145.688566950000      27.280000000000      50.000000000000
      1219    2      142.735420310000      32.394999990000      50.000000000000
      1220    2      145.688566950000      30.690000000000      50.000000000000
      1221    2      142.735420310000      35.805000000000      50.000000000000
      1222    2      145.688566950000      34.099999990000      50.000000000000
      1223    2      142.735420310000      39.215000000000      50.000000000000
      1224    2      145.688566950000      37.509999990000      50.000000000000
      1225    2      148.641713570000      28.984999990000      50.000000000000
      1226    1      151.594860200000      27.280000000000      50.000000000000
      1227    2      148.641713570000      32.394999990000      50.000000000000
      1228    1      151.594860200000      30.690000000000      50.000000000000
      1229    2      148.641713570000      35.805000000000      50.000000000000
      1230    2      151.594860200000      34.099999990000      50.000000000000
      1231    2      148.641713570000      39.215000000000      50.000000000000
      1232    1      151.594860200000      37.509999990000      50.000000000000
      1233    3      141.751038110000      27.280000000000      50.000000000000
      1234    3      144.704184730000      28.984999990000      50.000000000000
      1235    3      141.751038110000      30.690000000000      50.000000000000
      1236    3      144.704184730000      32.394999990000      50.000000000000
      1237    3      141.751038110000      34.099999990000      50.000000000000
      1238    3      144.704184730000      35.805000000000      50.000000000000
      1239    3      141.751038110000      37.509999990000      50.000000000000
      1240    3      144.704184730000      39.215000000000      50.000000000000
      1241    3      147.657331360000      27.280000000000      50.000000000000
      1242    3      150.610477990000      28.984999990000      50.000000000000
      1243    3      147.657331360000      30.690000000000      50.000000000000
      1244    3      150.610477990000      32.394999990000      50.000000000000
      1245    3      147.657331360000      34.099999990000      50.000000000000
      1246    3      150.610477990000      35.805000000000      50.000000000000
      1247    3      147.657331360000      37.509999990000      50.000000000000
      1248    3      150.610477990000      39.215000000000      50.000000000000
      1249    2        0.984382200000      42.624999990000      50.000000000000
      1250    2        3.937528840000      40.919999990000      50.000000000000
      1251    2        0.984382200000      46.034999990000      50.000000000000
      1252    2        3.937528840000      44.330000000000      50.000000000000
      1253    2        0.984382200000      49.445000000000      50.000000000000
      1254    2        3.937528840000      47.739999990000      50.000000000000
      1255    2        0.984382200000      52.855000000000      50.000000000000
      1256    2        3.937528840000      51.149999990000      50.000000000000
      1257    2        6.890675460000      42.624999990000      50.000000000000
      1258    2        9.843822090000      40.919999990000      50.000000000000
      1259    2        6.890675460000      46.034999990000      50.000000000000
      1260    2        9.843822090000      44.330000000000      50.000000000000
      1261    2        6.890675460000      49.445000000000      50.000000000000
      1262    2        9.843822090000      47.739999990000      50.000000000000
      1263    2        6.890675460000      52.855000000000      50.000000000000
      1264    2        9.843822090000      51.149999990000      50.000000000000
      1265    3        0.000000000000      40.919999990000      50.000000000000
      1266    3        2.953146620000      42.624999990000      50.000000000000
      1267    3        0.000000000000      44.330000000000      50.000000000000
      1268    3        2.953146620000      46.034999990000      50.000000000000
      1269    3        0.000000000000      47.739999990000      50.000000000000
      1270    3        2.953146620000      49.445000000000      50.000000000000
      1271    3        0.000000000000      51.149999990000      50.000000000000
      1272    3        2.953146620000      52.855000000000      50.000000000000
      1273    3        5.906293250000      40.919999990000      50.000000000000
      1274    3        8.859439880000      42.624999990000      50.000000000000
      1275    3        5.906293250000      44.330000000000      50.000000000000
      1276    3        8.859439880000      46.034999990000      50.000000000000
      1277    3        5.906293250000      47.739999990000      50.000000000000
      1278    3        8.859439880000      49.445000000000      50.000000000000
      1279    3        5.906293250000      51.149999990000      50.000000000000
      1280    3        8.859439880000      52.855000000000      50.000000000000
      1281    1       12.796968710000      42.624999990000      50.000000000000
      1282    2       15.750115350000      40.919999990000      50.000000000000
      1283    1       12.796968710000      46.034999990000      50.000000000000
      1284    2       15.750115350000      44.330000000000      50.000000000000
      1285    2       12.796968710000      49.445000000000      50.000000000000
      1286    2       15.750115350000      47.739999990000      50.000000000000
      1287    2       12.796968710000      52.855000000000      50.000000000000
      1288    2       15.750115350000      51.149999990000      50.000000000000
      1289    2       18.703261970000      42.624999990000      50.000000000000
      1290    2       21.656408600000      40.919999990000      50.000000000000
      1291    2       18.703261970000      46.034999990000      50.000000000000
      1292    2       21.656408600000      44.330000000000      50.000000000000
      1293    2       18.703261970000      49.445000000000      50.000000000000
      1294    2       21.656408600000      47.739999990000      50.000000000000
      1295    2       18.703261970000      52.855000000000      50.000000000000
      1296    2       21.656408600000      51.149999990000      50.000000000000
      1297    3       11.812586510000      40.919999990000      50.000000000000
      1298    3       14.765733130000      42.624999990000      50.000000000000
      1299    3       11.812586510000      44.330000000000      50.000000000000
      1300    3       14.765733130000      46.034999990000      50.000000000000
      1301    3       11.812586510000      47.739999990000      50.000000000000
      1302    3       14.765733130000      49.445000000000      50.000000000000
      1303    3       11.812586510000      51.149999990000      50.000000000000
      1304    3       14.765733130000      52.855000000000      50.000000000000
      1305    3       17.718879760000      40.919999990000      50.000000000000
      1306    3       20.672026390000      42.624999990000      50.000000000000
      1307    3       17.718879760000      44.330000000000      50.000000000000
      1308    3       20.672026390000      46.034999990000      50.000000000000
      1309    3       17.718879760000      47.739999990000      50.000000000000
      1310    3       20.672026390000      49.445000000000      50.000000000000
      1311    3       17.718879760000      51.149999990000      50.000000000000
      1312    3       20.672026390000      52.855000000000      50.000000000000
      1313    1       24.609555220000      42.624999990000      50.000000000000
      1314    2       27.562701850000      40.919999990000      50.000000000000
      1315    2       24.609555220000      46.034999990000      50.000000000000
      1316    2       27.562701850000      44.330000000000      50.000000000000
      1317    2       24.609555220000      49.445000000000      50.000000000000
      1318    2       27.562701850000      47.739999990000      50.000000000000
      1319    2       24.609555220000      52.855000000000      50.000000000000
      1320    2       27.562701850000      51.149999990000      50.000000000000
      1321    2       30.515848480000      42.624999990000      50.000000000000
      1322    2       33.468995110000      40.919999990000      50.000000000000
      1323    1       30.515848480000      46.034999990000      50.000000000000
      1324    2       33.468995110000      44.330000000000      50.000000000000
      1325    2       30.515848480000      49.445000000000      50.000000000000
      1326    1       33.468995110000      47.739999990000      50.000000000000
      1327    1       30.515848480000      52.855000000000      50.000000000000
      1328    2       33.468995110000      51.149999990000      50.000000000000
      1329    3       23.625173020000      40.919999990000      50.000000000000
      1330    3       26.578319640000      42.624999990000      50.000000000000
      1331    3       23.625173020000      44.330000000000      50.000000000000
      1332    3       26.578319640000      46.034999990000      50.000000000000
      1333    3       23.625173020000      47.739999990000      50.000000000000
      1334    3       26.578319640000      49.445000000000      50.000000000000
      1335    3       23.625173020000      51.149999990000      50.000000000000
      1336    3       26.578319640000      52.855000000000      50.000000000000
      1337    3       29.531466270000      40.919999990000      50.000000000000
      1338    3       32.484612890000      42.624999990000      50.000000000000
      1339    3       29.531466270000      44.330000000000      50.000000000000
      1340    3       32.484612890000      46.034999990000      50.000000000000
      1341    3       29.531466270000      47.739999990000      50.000000000000
      1342    3       32.484612890000      49.445000000000      50.000000000000
      1343    3       29.531466270000      51.149999990000      50.000000000000
      1344    3       32.484612890000      52.855000000000      50.000000000000
      1345    2       36.422141730000      42.624999990000      50.000000000000
      1346    2       39.375288360000      40.919999990000      50.000000000000
      1347    1       36.422141730000      46.034999990000      50.000000000000
      1348    2       39.375288360000      44.330000000000      50.000000000000
      1349    2       36.422141730000      49.445000000000      50.000000000000
      1350    2       39.375288360000      47.739999990000      50.000000000000
      1351    1       36.422141730000      52.855000000000      50.000000000000
      1352    2       39.375288360000      51.149999990000      50.000000000000
      1353    2       42.328434990000      42.624999990000      50.000000000000
      1354    2       45.281581620000      40.919999990000      50.000000000000
      1355    2       42.328434990000      46.034999990000      50.000000000000
      1356    2       45.281581620000      44.330000000000      50.000000000000
      1357    2       42.328434990000      49.445000000000      50.000000000000
      1358    2       45.281581620000      47.739999990000      50.000000000000
      1359    2       42.328434990000      52.855000000000      50.000000000000
      1360    2       45.281581620000      51.149999990000      50.000000000000
      1361    3       35.437759530000      40.919999990000      50.000000000000
      1362    3       38.390906150000      42.624999990000      50.000000000000
      1363    3       35.437759530000      44.330000000000      50.000000000000
      1364    3       38.390906150000      46.034999990000      50.000000000000
      1365    3       35.437759530000      47.739999990000      50.000000000000
      1366    3       38.390906150000      49.445000000000      50.000000000000
      1367    3       35.437759530000      51.149999990000      50.000000000000
      1368    3       38.390906150000      52.855000000000      50.000000000000
      1369    3       41.344052780000      40.919999990000      50.000000000000
      1370    3       44.297199400000      42.624999990000      50.000000000000
      1371    3       41.344052780000      44.330000000000      50.000000000000
      1372    3       44.297199400000      46.034999990000      50.000000000000
      1373    3       41.344052780000      47.739999990000      50.000000000000
      1374    3       44.297199400000      49.445000000000      50.000000000000
      1375    3       41.344052780000      51.149999990000      50.000000000000
      1376    3       44.297199400000      52.855000000000      50.000000000000
      1377    2       48.234728240000      42.624999990000      50.000000000000
      1378    2       51.187874870000      40.919999990000      50.000000000000
      1379    2       48.234728240000      46.034999990000      50.000000000000
      1380    2       51.187874870000      44.330000000000      50.000000000000
      1381    2       48.234728240000      49.445000000000      50.000000000000
      1382    1       51.187874870000      47.739999990000      50.000000000000
      1383    2       48.234728240000      52.855000000000      50.000000000000
      1384    2       51.187874870000      51.149999990000      50.000000000000
      1385    2       54.141021490000      42.624999990000      50.000000000000
      1386    2       57.094168130000      40.919999990000      50.000000000000
      1387    1       54.141021490000      46.034999990000      50.000000000000
      1388    2       57.094168130000      44.330000000000      50.000000000000
      1389    2       54.141021490000      49.445000000000      50.000000000000
      1390    2       57.094168130000      47.739999990000      50.000000000000
      1391    2       54.141021490000      52.855000000000      50.000000000000
      1392    1       57.094168130000      51.149999990000      50.000000000000
      1393    3       47.250346040000      40.919999990000      50.000000000000
      1394    3       50.203492660000      42.624999990000      50.000000000000
      1395    3       47.250346040000      44.330000000000      50.000000000000
      1396    3       50.203492660000      46.034999990000      50.000000000000
      1397    3       47.250346040000      47.739999990000      50.000000000000
      1398    3       50.203492660000      49.445000000000      50.000000000000
      1399    3       47.250346040000      51.149999990000      50.000000000000
      1400    3       50.203492660000      52.855000000000      50.000000000000
      1401    3       53.156639290000      40.919999990000      50.000000000000
      1402    3       56.109785910000      42.624999990000      50.000000000000
      1403    3       53.156639290000      44.330000000000      50.000000000000
      1404    3       56.109785910000      46.034999990000      50.000000000000
      1405    3       53.156639290000      47.739999990000      50.000000000000
      1406    3       56.109785910000      49.445000000000      50.000000000000
      1407    3       53.156639290000      51.149999990000      50.000000000000
      1408    3       56.109785910000      52.855000000000      50.000000000000
      1409    2       60.047314750000      42.624999990000      50.000000000000
      1410    2       63.000461380000      40.919999990000      50.000000000000
      1411    2       60.047314750000      46.034999990000      50.000000000000
      1412    2       63.000461380000      44.330000000000      50.000000000000
      1413    2       60.047314750000      49.445000000000      50.000000000000
      1414    1       63.000461380000      47.739999990000      50.000000000000
      1415    2       60.047314750000      52.855000000000      50.000000000000
      1416    2       63.000461380000      51.149999990000      50.000000000000
      1417    2       65.953608000000      42.624999990000      50.000000000000
      1418    2       68.906754640000      40.919999990000      50.000000000000
      1419    2       65.953608000000      46.034999990000      50.000000000000
      1420    2       68.906754640000      44.330000000000      50.000000000000
      1421    1       65.953608000000      49.445000000000      50.000000000000
      1422    2       68.906754640000      47.739999990000      50.000000000000
      1423    1       65.953608000000      52.855000000000      50.000000000000
      1424    2       68.906754640000      51.149999990000      50.000000000000
      1425    3       59.062932550000      40.919999990000      50.000000000000
      1426    3       62.016079170000      42.624999990000      50.000000000000
      1427    3       59.062932550000      44.330000000000      50.000000000000
      1428    3       62.016079170000      46.034999990000      50.000000000000
      1429    3       59.062932550000      47.739999990000      50.000000000000
      1430    3       62.016079170000      49.445000000000      50.000000000000
      1431    3       59.062932550000      51.149999990000      50.000000000000
      1432    3       62.016079170000      52.855000000000      50.000000000000
      1433    3       64.969225800000      40.919999990000      50.000000000000
      1434    3       67.922372420000      42.624999990000      50.000000000000
      1435    3       64.969225800000      44.330000000000      50.000000000000
      1436    3       67.922372420000      46.034999990000      50.000000000000
      1437    3       64.969225800000      47.739999990000      50.000000000000
      1438    3       67.922372420000      49.445000000000      50.000000000000
      1439    3       64.969225800000      51.149999990000      50.000000000000
      1440    3       67.922372420000      52.855000000000      50.000000000000
      1441    1       71.859901260000      42.624999990000      50.000000000000
      1442    2       74.813047890000      40.919999990000      50.000000000000
      1443    2       71.859901260000      46.034999990000      50.000000000000
      1444    2       74.813047890000      44.330000000000      50.000000000000
      1445    2       71.859901260000      49.445000000000      50.000000000000
      1446    1       74.813047890000      47.739999990000      50.000000000000
      1447    2       71.859901260000      52.855000000000      50.000000000000
      1448    2       74.813047890000      51.149999990000      50.000000000000
      1449    2       77.766194510000      42.624999990000      50.000000000000
      1450    2       80.719341150000      40.919999990000      50.000000000000
      1451    2       77.766194510000      46.034999990000      50.000000000000
      1452    2       80.719341150000      44.330000000000      50.000000000000
      1453    1       77.766194510000      49.445000000000      50.000000000000
      1454    1       80.719341150000      47.739999990000      50.000000000000
      1455    2       77.766194510000      52.855000000000      50.000000000000
      1456    2       80.719341150000      51.149999990000      50.000000000000
      1457    3       70.875519050000      40.919999990000      50.000000000000
      1458    3       73.828665680000      42.624999990000      50.000000000000
      1459    3       70.875519050000      44.330000000000      50.000000000000
      1460    3       73.828665680000      46.034999990000      50.000000000000
      1461    3       70.875519050000      47.739999990000      50.000000000000
      1462    3       73.828665680000      49.445000000000      50.000000000000
      1463    3       70.875519050000      51.149999990000      50.000000000000
      1464    3       73.828665680000      52.855000000000      50.000000000000
      1465    3       76.781812310000      40.919999990000      50.000000000000
      1466    3       79.734958930000      42.624999990000      50.000000000000
      1467    3       76.781812310000      44.330000000000      50.000000000000
      1468    3       79.734958930000      46.034999990000      50.000000000000
      1469    3       76.781812310000      47.739999990000      50.000000000000
      1470    3       79.734958930000      49.445000000000      50.000000000000
      1471    3       76.781812310000      51.149999990000      50.000000000000
      1472    3       79.734958930000      52.855000000000      50.000000000000
      1473    2       83.672487770000      42.624999990000      50.000000000000
      1474    2       86.625634400000      40.919999990000      50.000000000000
      1475    2       83.672487770000      46.034999990000      50.000000000000
      1476    2       86.625634400000      44.330000000000      50.000000000000
      1477    2       83.672487770000      49.445000000000      50.000000000000
      1478    1       86.625634400000      47.739999990000      50.000000000000
      1479    2       83.672487770000      52.855000000000      50.000000000000
      1480    2       86.625634400000      51.149999990000      50.000000000000
      1481    2       89.578781020000      42.624999990000      50.000000000000
      1482    2       92.531927650000      40.919999990000      50.000000000000
      1483    2       89.578781020000      46.034999990000      50.000000000000
      1484    1       92.531927650000      44.330000000000      50.000000000000
      1485    2       89.578781020000      49.445000000000      50.000000000000
      1486    2       92.531927650000      47.739999990000      50.000000000000
      1487    2       89.578781020000      52.855000000000      50.000000000000
      1488    2       92.531927650000      51.149999990000      50.000000000000
      1489    3       82.688105560000      40.919999990000      50.000000000000
      1490    3       85.641252190000      42.624999990000      50.000000000000
      1491    3       82.688105560000      44.330000000000      50.000000000000
      1492    3       85.641252190000      46.034999990000      50.000000000000
      1493    3       82.688105560000      47.739999990000      50.000000000000
      1494    3       85.641252190000      49.445000000000      50.000000000000
      1495    3       82.688105560000      51.149999990000      50.000000000000
      1496    3       85.641252190000      52.855000000000      50.000000000000
      1497    3       88.594398820000      40.919999990000      50.000000000000
      1498    3       91.547545440000      42.624999990000      50.000000000000
      1499    3       88.594398820000      44.330000000000      50.000000000000
      1500    3       91.547545440000      46.034999990000      50.000000000000
      1501    3       88.594398820000      47.739999990000      50.000000000000
      1502    3       91.547545440000      49.445000000000      50.000000000000
      1503    3       88.594398820000      51.149999990000      50.000000000000
      1504    3       91.547545440000      52.855000000000      50.000000000000
      1505    2       95.485074280000      42.624999990000      50.000000000000
      1506    1       98.438220910000      40.919999990000      50.000000000000
      1507    2       95.485074280000      46.034999990000      50.000000000000
      1508    2       98.438220910000      44.330000000000      50.000000000000
      1509    2       95.485074280000      49.445000000000      50.000000000000
      1510    2       98.438220910000      47.739999990000      50.000000000000
      1511    2       95.485074280000      52.855000000000      50.000000000000
      1512    2       98.438220910000      51.149999990000      50.000000000000
      1513    2      101.391367530000      42.624999990000      50.000000000000
      1514    2      104.344514160000      40.919999990000      50.000000000000
      1515    2      101.391367530000      46.034999990000      50.000000000000
      1516    2      104.344514160000      44.330000000000      50.000000000000
      1517    2      101.391367530000      49.445000000000      50.000000000000
      1518    2      104.344514160000      47.739999990000      50.000000000000
      1519    2      101.391367530000      52.855000000000      50.000000000000
      1520    2      104.344514160000      51.149999990000      50.000000000000
      1521    3       94.500692070000      40.919999990000      50.000000000000
      1522    3       97.453838690000      42.624999990000      50.000000000000
      1523    3       94.500692070000      44.330000000000      50.000000000000
      1524    3       97.453838690000      46.034999990000      50.000000000000
      1525    3       94.500692070000      47.739999990000      50.000000000000
      1526    3       97.453838690000      49.445000000000      50.000000000000
      1527    3       94.500692070000      51.149999990000      50.000000000000
      1528    3       97.453838690000      52.855000000000      50.000000000000
      1529    3      100.406985330000      40.919999990000      50.000000000000
      1530    3      103.360131950000      42.624999990000      50.000000000000
      1531    3      100.406985330000      44.330000000000      50.000000000000
      1532    3      103.360131950000      46.034999990000      50.000000000000
      1533    3      100.406985330000      47.739999990000      50.000000000000
      1534    3      103.360131950000      49.445000000000      50.000000000000
      1535    3      100.406985330000      51.149999990000      50.000000000000
      1536    3      103.360131950000      52.855000000000      50.000000000000
      1537    2      107.297660790000      42.624999990000      50.000000000000
      1538    2      110.250807420000      40.919999990000      50.000000000000
      1539    2      107.297660790000      46.034999990000      50.000000000000
      1540    2      110.250807420000      44.330000000000      50.000000000000
      1541    2      107.297660790000      49.445000000000      50.000000000000
      1542    2      110.250807420000      47.739999990000      50.000000000000
      1543    2      107.297660790000      52.855000000000      50.000000000000
      1544    2      110.250807420000      51.149999990000      50.000000000000
      1545    2      113.203954040000      42.624999990000      50.000000000000
      1546    2      116.157100670000      40.919999990000      50.000000000000
      1547    2      113.203954040000      46.034999990000      50.000000000000
      1548    2      116.157100670000      44.330000000000      50.000000000000
      1549    2      113.203954040000      49.445000000000      50.000000000000
      1550    2      116.157100670000      47.739999990000      50.000000000000
      1551    2      113.203954040000      52.855000000000      50.000000000000
      1552    2      116.157100670000      51.149999990000      50.000000000000
      1553    3      106.313278580000      40.919999990000      50.000000000000
      1554    3      109.266425200000      42.624999990000      50.000000000000
      1555    3      106.313278580000      44.330000000000      50.000000000000
      1556    3      109.266425200000      46.034999990000      50.000000000000
      1557    3      106.313278580000      47.739999990000      50.000000000000
      1558    3      109.266425200000      49.445000000000      50.000000000000
      1559    3      106.313278580000      51.149999990000      50.000000000000
      1560    3      109.266425200000      52.855000000000      50.000000000000
      1561    3      112.219571840000      40.919999990000      50.000000000000
      1562    3      115.172718460000      42.624999990000      50.000000000000
      1563    3      112.219571840000      44.330000000000      50.000000000000
      1564    3      115.172718460000      46.034999990000      50.000000000000
      1565    3      112.219571840000      47.739999990000      50.000000000000
      1566    3      115.172718460000      49.445000000000      50.000000000000
      1567    3      112.219571840000      51.149999990000      50.000000000000
      1568    3      115.172718460000      52.855000000000      50.000000000000
      1569    2      119.110247290000      42.624999990000      50.000000000000
      1570    2      122.063393930000      40.919999990000      50.000000000000
      1571    2      119.110247290000      46.034999990000      50.000000000000
      1572    2      122.063393930000      44.330000000000      50.000000000000
      1573    1      119.110247290000      49.445000000000      50.000000000000
      1574    2      122.063393930000      47.739999990000      50.000000000000
      1575    2      119.110247290000      52.855000000000      50.000000000000
      1576    2      122.063393930000      51.149999990000      50.000000000000
      1577    2      125.016540550000      42.624999990000      50.000000000000
      1578    2      127.969687180000      40.919999990000      50.000000000000
      1579    2      125.016540550000      46.034999990000      50.000000000000
      1580    2      127.969687180000      44.330000000000      50.000000000000
      1581    2      125.016540550000      49.445000000000      50.000000000000
      1582    2      127.969687180000      47.739999990000      50.000000000000
      1583    2      125.016540550000      52.855000000000      50.000000000000
      1584    2      127.969687180000      51.149999990000      50.000000000000
      1585    3      118.125865090000      40.919999990000      50.000000000000
      1586    3      121.079011710000      42.624999990000      50.000000000000
      1587    3      118.125865090000      44.330000000000      50.000000000000
      1588    3      121.079011710000      46.034999990000      50.000000000000
      1589    3      118.125865090000      47.739999990000      50.000000000000
      1590    3      121.079011710000      49.445000000000      50.000000000000
      1591    3      118.125865090000      51.149999990000      50.000000000000
      1592    3      121.079011710000      52.855000000000      50.000000000000
      1593    3      124.032158350000      40.919999990000      50.000000000000
      1594    3      126.985304970000      42.624999990000      50.000000000000
      1595    3      124.032158350000      44.330000000000      50.000000000000
      1596    3      126.985304970000      46.034999990000      50.000000000000
      1597    3      124.032158350000      47.739999990000      50.000000000000
      1598    3      126.985304970000      49.445000000000      50.000000000000
      1599    3      124.032158350000      51.149999990000      50.000000000000
      1600    3      126.985304970000      52.855000000000      50.000000000000
      1601    2      130.922833800000      42.624999990000      50.000000000000
      1602    2      133.875980440000      40.919999990000      50.000000000000
      1603    2      130.922833800000      46.034999990000      50.000000000000
      1604    2      133.875980440000      44.330000000000      50.000000000000
      1605    2      130.922833800000      49.445000000000      50.000000000000
      1606    2      133.875980440000      47.739999990000      50.000000000000
      1607    2      130.922833800000      52.855000000000      50.000000000000
      1608    2      133.875980440000      51.149999990000      50.000000000000
      1609    2      136.829127060000      42.624999990000      50.000000000000
      1610    2      139.782273690000      40.919999990000      50.000000000000
      1611    2      136.829127060000      46.034999990000      50.000000000000
      1612    1      139.782273690000      44.330000000000      50.000000000000
      1613    1      136.829127060000      49.445000000000      50.000000000000
      1614    2      139.782273690000      47.739999990000      50.000000000000
      1615    2      136.829127060000      52.855000000000      50.000000000000
      1616    2      139.782273690000      51.149999990000      50.000000000000
      1617    3      129.938451600000      40.919999990000      50.000000000000
      1618    3      132.891598220000      42.624999990000      50.000000000000
      1619    3      129.938451600000      44.330000000000      50.000000000000
      1620    3      132.891598220000      46.034999990000      50.000000000000
      1621    3      129.938451600000      47.739999990000      50.000000000000
      1622    3      132.891598220000      49.445000000000      50.000000000000
      1623    3      129.938451600000      51.149999990000      50.000000000000
      1624    3      132.891598220000      52.855000000000      50.000000000000
      1625    3      135.844744850000      40.919999990000      50.000000000000
      1626    3      138.797891480000      42.624999990000      50.000000000000
      1627    3      135.844744850000      44.330000000000      50.000000000000
      1628    3      138.797891480000      46.034999990000      50.000000000000
      1629    3      135.844744850000      47.739999990000      50.000000000000
      1630    3      138.797891480000      49.445000000000      50.000000000000
      1631    3      135.844744850000      51.149999990000      50.000000000000
      1632    3      138.797891480000      52.855000000000      50.000000000000
      1633    2      142.735420310000      42.624999990000      50.000000000000
      1634    2      145.688566950000      40.919999990000      50.000000000000
      1635    1      142.735420310000      46.034999990000      50.000000000000
      1636    1      145.688566950000      44.330000000000      50.000000000000
      1637    2      142.735420310000      49.445000000000      50.000000000000
      1638    2      145.688566950000      47.739999990000      50.000000000000
      1639    2      142.735420310000      52.855000000000      50.000000000000
      1640    2      145.688566950000      51.149999990000      50.000000000000
      1641    2      148.641713570000      42.624999990000      50.000000000000
      1642    2      151.594860200000      40.919999990000      50.000000000000
      1643    1      148.641713570000      46.034999990000      50.000000000000
      1644    2      151.594860200000      44.330000000000      50.000000000000
      1645    1      148.641713570000      49.445000000000      50.000000000000
      1646    2      151.594860200000      47.739999990000      50.000000000000
      1647    2      148.641713570000      52.855000000000      50.000000000000
      1648    2      151.594860200000      51.149999990000      50.000000000000
      1649    3      141.751038110000      40.919999990000      50.000000000000
      1650    3      144.704184730000      42.624999990000      50.000000000000
      1651    3      141.751038110000      44.330000000000      50.000000000000
      1652    3      144.704184730000      46.034999990000      50.000000000000
      1653    3      141.751038110000      47.739999990000      50.000000000000
      1654    3      144.704184730000      49.445000000000      50.000000000000
      1655    3      141.751038110000      51.149999990000      50.000000000000
      1656    3      144.704184730000      52.855000000000      50.000000000000
      1657    3      147.657331360000      40.919999990000      50.000000000000
      1658    3      150.610477990000      42.624999990000      50.000000000000
      1659    3      147.657331360000      44.330000000000      50.000000000000
      1660    3      150.610477990000      46.034999990000      50.000000000000
      1661    3      147.657331360000      47.739999990000      50.000000000000
      1662    3      150.610477990000      49.445000000000      50.000000000000
      1663    3      147.657331360000      51.149999990000      50.000000000000
      1664    3      150.610477990000      52.855000000000      50.000000000000
      1665    2        0.984382200000      56.264999990000      50.000000000000
      1666    2        3.937528840000      54.559999990000      50.000000000000
      1667    2        0.984382200000      59.674999990000      50.000000000000
      1668    2        3.937528840000      57.970000000000      50.000000000000
      1669    2        0.984382200000      63.084999990000      50.000000000000
      1670    2        3.937528840000      61.379999990000      50.000000000000
      1671    1        0.984382200000      66.495000000000      50.000000000000
      1672    2        3.937528840000      64.789999990000      50.000000000000
      1673    2        6.890675460000      56.264999990000      50.000000000000
      1674    1        9.843822090000      54.559999990000      50.000000000000
      1675    2        6.890675460000      59.674999990000      50.000000000000
      1676    2        9.843822090000      57.970000000000      50.000000000000
      1677    2        6.890675460000      63.084999990000      50.000000000000
      1678    2        9.843822090000      61.379999990000      50.000000000000
      1679    2        6.890675460000      66.495000000000      50.000000000000
      1680    2        9.843822090000      64.789999990000      50.000000000000
      1681    3        0.000000000000      54.559999990000      50.000000000000
      1682    3        2.953146620000      56.264999990000      50.000000000000
      1683    3        0.000000000000      57.970000000000      50.000000000000
      1684    3        2.953146620000      59.674999990000      50.000000000000
      1685    3        0.000000000000      61.379999990000      50.000000000000
      1686    3        2.953146620000      63.084999990000      50.000000000000
      1687    3        0.000000000000      64.789999990000      50.000000000000
      1688    3        2.953146620000      66.495000000000      50.000000000000
      1689    3        5.906293250000      54.559999990000      50.000000000000
      1690    3        8.859439880000      56.264999990000      50.000000000000
      1691    3        5.906293250000      57.970000000000      50.000000000000
      1692    3        8.859439880000      59.674999990000      50.000000000000
      1693    3        5.906293250000      61.379999990000      50.000000000000
      1694    3        8.859439880000      63.084999990000      50.000000000000
      1695    3        5.906293250000      64.789999990000      50.000000000000
      1696    3        8.859439880000      66.495000000000      50.000000000000
      1697    2       12.796968710000      56.264999990000      50.000000000000
      1698    2       15.750115350000      54.559999990000      50.000000000000
      1699    2       12.796968710000      59.674999990000      50.000000000000
      1700    2       15.750115350000      57.970000000000      50.000000000000
      1701    1       12.796968710000      63.084999990000      50.000000000000
      1702    1       15.750115350000      61.379999990000      50.000000000000
      1703    1       12.796968710000      66.495000000000      50.000000000000
      1704    2       15.750115350000      64.789999990000      50.000000000000
      1705    1       18.703261970000      56.264999990000      50.000000000000
      1706    2       21.656408600000      54.559999990000      50.000000000000
      1707    2       18.703261970000      59.674999990000      50.000000000000
      1708    2       21.656408600000      57.970000000000      50.000000000000
      1709    2       18.703261970000      63.084999990000      50.000000000000
      1710    2       21.656408600000      61.379999990000      50.000000000000
      1711    2       18.703261970000      66.495000000000      50.000000000000
      1712    2       21.656408600000      64.789999990000      50.000000000000
      1713    3       11.812586510000      54.559999990000      50.000000000000
      1714    3       14.765733130000      56.264999990000      50.000000000000
      1715    3       11.812586510000      57.970000000000      50.000000000000
      1716    3       14.765733130000      59.674999990000      50.000000000000
      1717    3       11.812586510000      61.379999990000      50.000000000000
      1718    3       14.765733130000      63.084999990000      50.000000000000
      1719    3       11.812586510000      64.789999990000      50.000000000000
      1720    3       14.765733130000      66.495000000000      50.000000000000
      1721    3       17.718879760000      54.559999990000      50.000000000000
      1722    3       20.672026390000      56.264999990000      50.000000000000
      1723    3       17.718879760000      57.970000000000      50.000000000000
      1724    3       20.672026390000      59.674999990000      50.000000000000
      1725    3       17.718879760000      61.379999990000      50.000000000000
      1726    3       20.672026390000      63.084999990000      50.000000000000
      1727    3       17.718879760000      64.789999990000      50.000000000000
      1728    3       20.672026390000      66.495000000000      50.000000000000
      1729    2       24.609555220000      56.264999990000      50.000000000000
      1730    2       27.562701850000      54.559999990000      50.000000000000
      1731    2       24.609555220000      59.674999990000      50.000000000000
      1732    2       27.562701850000      57.970000000000      50.000000000000
      1733    1       24.609555220000      63.084999990000      50.000000000000
      1734    2       27.562701850000      61.379999990000      50.000000000000
      1735    1       24.609555220000      66.495000000000      50.000000000000
      1736    2       27.562701850000      64.789999990000      50.000000000000
      1737    2       30.515848480000      56.264999990000      50.000000000000
      1738    2       33.468995110000      54.559999990000      50.000000000000
      1739    2       30.515848480000      59.674999990000      50.000000000000
      1740    2       33.468995110000      57.970000000000      50.000000000000
      1741    1       30.515848480000      63.084999990000      50.000000000000
      1742    2       33.468995110000      61.379999990000      50.000000000000
      1743    2       30.515848480000      66.495000000000      50.000000000000
      1744    2       33.468995110000      64.789999990000      50.000000000000
      1745    3       23.625173020000      54.559999990000      50.000000000000
      1746    3       26.578319640000      56.264999990000      50.000000000000
      1747    3       23.625173020000      57.970000000000      50.000000000000
      1748    3       26.578319640000      59.674999990000      50.000000000000
      1749    3       23.625173020000      61.379999990000      50.000000000000
      1750    3       26.578319640000      63.084999990000      50.000000000000
      1751    3       23.625173020000      64.789999990000      50.000000000000
      1752    3       26.578319640000      66.495000000000      50.000000000000
      1753    3       29.531466270000      54.559999990000      50.000000000000
      1754    3       32.484612890000      56.264999990000      50.000000000000
      1755    3       29.531466270000      57.970000000000      50.000000000000
      1756    3       32.484612890000      59.674999990000      50.000000000000
      1757    3       29.531466270000      61.379999990000      50.000000000000
      1758    3       32.484612890000      63.084999990000      50.000000000000
      1759    3       29.531466270000      64.789999990000      50.000000000000
      1760    3       32.484612890000      66.495000000000      50.000000000000
      1761    2       36.422141730000      56.264999990000      50.000000000000
      1762    2       39.375288360000      54.559999990000      50.000000000000
      1763    2       36.422141730000      59.674999990000      50.000000000000
      1764    2       39.375288360000      57.970000000000      50.000000000000
      1765    1       36.422141730000      63.084999990000      50.000000000000
      1766    2       39.375288360000      61.379999990000      50.000000000000
      1767    2       36.422141730000      66.495000000000      50.000000000000
      1768    1       39.375288360000      64.789999990000      50.000000000000
      1769    2       42.328434990000      56.264999990000      50.000000000000
      1770    2       45.281581620000      54.559999990000      50.000000000000
      1771    2       42.328434990000      59.674999990000      50.000000000000
      1772    1       45.281581620000      57.970000000000      50.000000000000
      1773    2       42.328434990000      63.084999990000      50.000000000000
      1774    2       45.281581620000      61.379999990000      50.000000000000
      1775    2       42.328434990000      66.495000000000      50.000000000000
      1776    2       45.281581620000      64.789999990000      50.000000000000
      1777    3       35.437759530000      54.559999990000      50.000000000000
      1778    3       38.390906150000      56.264999990000      50.000000000000
      1779    3       35.437759530000      57.970000000000      50.000000000000
      1780    3       38.390906150000      59.674999990000      50.000000000000
      1781    3       35.437759530000      61.379999990000      50.000000000000
      1782    3       38.390906150000      63.084999990000      50.000000000000
      1783    3       35.437759530000      64.789999990000      50.000000000000
      1784    3       38.390906150000      66.495000000000      50.000000000000
      1785    3       41.344052780000      54.559999990000      50.000000000000
      1786    3       44.297199400000      56.264999990000      50.000000000000
      1787    3       41.344052780000      57.970000000000      50.000000000000
      1788    3       44.297199400000      59.674999990000      50.000000000000
      1789    3       41.344052780000      61.379999990000      50.000000000000
      1790    3       44.297199400000      63.084999990000      50.000000000000
      1791    3       41.344052780000      64.789999990000      50.000000000000
      1792    3       44.297199400000      66.495000000000      50.000000000000
      1793    2       48.234728240000      56.264999990000      50.000000000000
      1794    2       51.187874870000      54.559999990000      50.000000000000
      1795    2       48.234728240000      59.674999990000      50.000000000000
      1796    2       51.187874870000      57.970000000000      50.000000000000
      1797    2       48.234728240000      63.084999990000      50.000000000000
      1798    2       51.187874870000      61.379999990000      50.000000000000
      1799    2       48.234728240000      66.495000000000      50.000000000000
      1800    2       51.187874870000      64.789999990000      50.000000000000
      1801    2       54.141021490000      56.264999990000      50.000000000000
      1802    2       57.094168130000      54.559999990000      50.000000000000
      1803    2       54.141021490000      59.674999990000      50.000000000000
      1804    2       57.094168130000      57.970000000000      50.000000000000
      1805    2       54.141021490000      63.084999990000      50.000000000000
      1806    2       57.094168130000      61.379999990000      50.000000000000
      1807    2       54.141021490000      66.495000000000      50.000000000000
      1808    1       57.094168130000      64.789999990000      50.000000000000
      1809    3       47.250346040000      54.559999990000      50.000000000000
      1810    3       50.203492660000      56.264999990000      50.000000000000
      1811    3       47.250346040000      57.970000000000      50.000000000000
      1812    3       50.203492660000      59.674999990000      50.000000000000
      1813    3       47.250346040000      61.379999990000      50.000000000000
      1814    3       50.203492660000      63.084999990000      50.000000000000
      1815    3       47.250346040000      64.789999990000      50.000000000000
      1816    3       50.203492660000      66.495000000000      50.000000000000
      1817    3       53.156639290000      54.559999990000      50.000000000000
      1818    3       56.109785910000      56.264999990000      50.000000000000
      1819    3       53.156639290000      57.970000000000      50.000000000000
      1820    3       56.109785910000      59.674999990000      50.000000000000
      1821    3       53.156639290000      61.379999990000      50.000000000000
      1822    3       56.109785910000      63.084999990000      50.000000000000
      1823    3       53.156639290000      64.789999990000      50.000000000000
      1824    3       56.109785910000      66.495000000000      50.000000000000
      1825    2       60.047314750000      56.264999990000      50.000000000000
      1826    2       63.000461380000      54.559999990000      50.000000000000
      1827    2       60.047314750000      59.674999990000      50.000000000000
      1828    2       63.000461380000      57.970000000000      50.000000000000
      1829    2       60.047314750000      63.084999990000      50.000000000000
      1830    2       63.000461380000      61.379999990000      50.000000000000
      1831    2       60.047314750000      66.495000000000      50.000000000000
      1832    2       63.000461380000      64.789999990000      50.000000000000
      1833    2       65.953608000000      56.264999990000      50.000000000000
      1834    2       68.906754640000      54.559999990000      50.000000000000
      1835    1       65.953608000000      59.674999990000      50.000000000000
      1836    2       68.906754640000      57.970000000000      50.000000000000
      1837    1       65.953608000000      63.084999990000      50.000000000000
      1838    2       68.906754640000      61.379999990000      50.000000000000
      1839    2       65.953608000000      66.495000000000      50.000000000000
      1840    2       68.906754640000      64.789999990000      50.000000000000
      1841    3       59.062932550000      54.559999990000      50.000000000000
      1842    3       62.016079170000      56.264999990000      50.000000000000
      1843    3       59.062932550000      57.970000000000      50.000000000000
      1844    3       62.016079170000      59.674999990000      50.000000000000
      1845    3       59.062932550000      61.379999990000      50.000000000000
      1846    3       62.016079170000      63.084999990000      50.000000000000
      1847    3       59.062932550000      64.789999990000      50.000000000000
      1848    3       62.016079170000      66.495000000000      50.000000000000
      1849    3       64.969225800000      54.559999990000      50.000000000000
      1850    3       67.922372420000      56.264999990000      50.000000000000
      1851    3       64.969225800000      57.970000000000      50.000000000000
      1852    3       67.922372420000      59.674999990000      50.000000000000
      1853    3       64.969225800000      61.379999990000      50.000000000000
      1854    3       67.922372420000      63.084999990000      50.000000000000
      1855    3       64.969225800000      64.789999990000      50.000000000000
      1856    3       67.922372420000      66.495000000000      50.000000000000
      1857    2       71.859901260000      56.264999990000      50.000000000000
      1858    2       74.813047890000      54.559999990000      50.000000000000
      1859    2       71.859901260000      59.674999990000      50.000000000000
      1860    2       74.813047890000      57.970000000000      50.000000000000
      1861    2       71.859901260000      63.084999990000      50.000000000000
      1862    2       74.813047890000      61.379999990000      50.000000000000
      1863    2       71.859901260000      66.495000000000      50.000000000000
      1864    2       74.813047890000      64.789999990000      50.000000000000
      1865    2       77.766194510000      56.264999990000      50.000000000000
      1866    2       80.719341150000      54.559999990000      50.000000000000
      1867    1       77.766194510000      59.674999990000      50.000000000000
      1868    2       80.719341150000      57.970000000000      50.000000000000
      1869    2       77.766194510000      63.084999990000      50.000000000000
      1870    2       80.719341150000      61.379999990000      50.000000000000
      1871    2       77.766194510000      66.495000000000      50.000000000000
      1872    2       80.719341150000      64.789999990000      50.000000000000
      1873    3       70.875519050000      54.559999990000      50.000000000000
      1874    3       73.828665680000      56.264999990000      50.000000000000
      1875    3       70.875519050000      57.970000000000      50.000000000000
      1876    3       73.828665680000      59.674999990000      50.000000000000
      1877    3       70.875519050000      61.379999990000      50.000000000000
      1878    3       73.828665680000      63.084999990000      50.000000000000
      1879    3       70.875519050000      64.789999990000      50.000000000000
      1880    3       73.828665680000      66.495000000000      50.000000000000
      1881    3       76.781812310000      54.559999990000      50.000000000000
      1882    3       79.734958930000      56.264999990000      50.000000000000
      1883    3       76.781812310000      57.970000000000      50.000000000000
      1884    3       79.734958930000      59.674999990000      50.000000000000
      1885    3       76.781812310000      61.379999990000      50.000000000000
      1886    3       79.734958930000      63.084999990000      50.000000000000
      1887    3       76.781812310000      64.789999990000      50.000000000000
      1888    3       79.734958930000      66.495000000000      50.000000000000
      1889    2       83.672487770000      56.264999990000      50.000000000000
      1890    2       86.625634400000      54.559999990000      50.000000000000
      1891    2       83.672487770000      59.674999990000      50.000000000000
      1892    2       86.625634400000      57.970000000000      50.000000000000
      1893    2       83.672487770000      63.084999990000      50.000000000000
      1894    2       86.625634400000      61.379999990000      50.000000000000
      1895    2       83.672487770000      66.495000000000      50.000000000000
      1896    2       86.625634400000      64.789999990000      50.000000000000
      1897    2       89.578781020000      56.264999990000      50.000000000000
      1898    1       92.531927650000      54.559999990000      50.000000000000
      1899    2       89.578781020000      59.674999990000      50.000000000000
      1900    1       92.531927650000      57.970000000000      50.000000000000
      1901    2       89.578781020000      63.084999990000      50.000000000000
      1902    2       92.531927650000      61.379999990000      50.000000000000
      1903    2       89.578781020000      66.495000000000      50.000000000000
      1904    2       92.531927650000      64.789999990000      50.000000000000
      1905    3       82.688105560000      54.559999990000      50.000000000000
      1906    3       85.641252190000      56.264999990000      50.000000000000
      1907    3       82.688105560000      57.970000000000      50.000000000000
      1908    3       85.641252190000      59.674999990000      50.000000000000
      1909    3       82.688105560000      61.379999990000      50.000000000000
      1910    3       85.641252190000      63.084999990000      50.000000000000
      1911    3       82.688105560000      64.789999990000      50.000000000000
      1912    3       85.641252190000      66.495000000000      50.000000000000
      1913    3       88.594398820000      54.559999990000      50.000000000000
      1914    3       91.547545440000      56.264999990000      50.000000000000
      1915    3       88.594398820000      57.970000000000      50.000000000000
      1916    3       91.547545440000      59.674999990000      50.000000000000
      1917    3       88.594398820000      61.379999990000      50.000000000000
      1918    3       91.547545440000      63.084999990000      50.000000000000
      1919    3       88.594398820000      64.789999990000      50.000000000000
      1920    3       91.547545440000      66.495000000000      50.000000000000
      1921    1       95.485074280000      56.264999990000      50.000000000000
      1922    2       98.438220910000      54.559999990000      50.000000000000
      1923    2       95.485074280000      59.674999990000      50.000000000000
      1924    2       98.438220910000      57.970000000000      50.000000000000
      1925    2       95.485074280000      63.084999990000      50.000000000000
      1926    2       98.438220910000      61.379999990000      50.000000000000
      1927    2       95.485074280000      66.495000000000      50.000000000000
      1928    2       98.438220910000      64.789999990000      50.000000000000
      1929    2      101.391367530000      56.264999990000      50.000000000000
      1930    2      104.344514160000      54.559999990000      50.000000000000
      1931    2      101.391367530000      59.674999990000      50.000000000000
      1932    2      104.344514160000      57.970000000000      50.000000000000
      1933    2      101.391367530000      63.084999990000      50.000000000000
      1934    2      104.344514160000      61.379999990000      50.000000000000
      1935    2      101.391367530000      66.495000000000      50.000000000000
      1936    2      104.344514160000      64.789999990000      50.000000000000
      1937    3       94.500692070000      54.559999990000      50.000000000000
      1938    3       97.453838690000      56.264999990000      50.000000000000
      1939    3       94.500692070000      57.970000000000      50.000000000000
      1940    3       97.453838690000      59.674999990000      50.000000000000
      1941    3       94.500692070000      61.379999990000      50.000000000000
      1942    3       97.453838690000      63.084999990000      50.000000000000
      1943    3       94.500692070000      64.789999990000      50.000000000000
      1944    3       97.453838690000      66.495000000000      50.000000000000
      1945    3      100.406985330000      54.559999990000      50.000000000000
      1946    3      103.360131950000      56.264999990000      50.000000000000
      1947    3      100.406985330000      57.970000000000      50.000000000000
      1948    3      103.360131950000      59.674999990000      50.000000000000
      1949    3      100.406985330000      61.379999990000      50.000000000000
      1950    3      103.360131950000      63.084999990000      50.000000000000
      1951    3      100.406985330000      64.789999990000      50.000000000000
      1952    3      103.360131950000      66.495000000000      50.000000000000
      1953    2      107.297660790000      56.264999990000      50.000000000000
      1954    2      110.250807420000      54.559999990000      50.000000000000
      1955    2      107.297660790000      59.674999990000      50.000000000000
      1956    2      110.250807420000      57.970000000000      50.000000000000
      1957    2      107.297660790000      63.084999990000      50.000000000000
      1958    2      110.250807420000      61.379999990000      50.000000000000
      1959    2      107.297660790000      66.495000000000      50.000000000000
      1960    2      110.250807420000      64.789999990000      50.000000000000
      1961    2      113.203954040000      56.264999990000      50.000000000000
      1962    2      116.157100670000      54.559999990000      50.000000000000
      1963    2      113.203954040000      59.674999990000      50.000000000000
      1964    2      116.157100670000      57.970000000000      50.000000000000
      1965    2      113.203954040000      63.084999990000      50.000000000000
      1966    1      116.157100670000      61.379999990000      50.000000000000
      1967    2      113.203954040000      66.495000000000      50.000000000000
      1968    2      116.157100670000      64.789999990000      50.000000000000
      1969    3      106.313278580000      54.559999990000      50.000000000000
      1970    3      109.266425200000      56.264999990000      50.000000000000
      1971    3      106.313278580000      57.970000000000      50.000000000000
      1972    3      109.266425200000      59.674999990000      50.000000000000
      1973    3      106.313278580000      61.379999990000      50.000000000000
      1974    3      109.266425200000      63.084999990000      50.000000000000
      1975    3      106.313278580000      64.789999990000      50.000000000000
      1976    3      109.266425200000      66.495000000000      50.000000000000
      1977    3      112.219571840000      54.559999990000      50.000000000000
      1978    3      115.172718460000      56.264999990000      50.000000000000
      1979    3      112.219571840000      57.970000000000      50.000000000000
      1980    3      115.172718460000      59.674999990000      50.000000000000
      1981    3      112.219571840000      61.379999990000      50.000000000000
      1982    3      115.172718460000      63.084999990000      50.000000000000
      1983    3      112.219571840000      64.789999990000      50.000000000000
      1984    3      115.172718460000      66.495000000000      50.000000000000
      1985    1      119.110247290000      56.264999990000      50.000000000000
      1986    2      122.063393930000      54.559999990000      50.000000000000
      1987    1      119.110247290000      59.674999990000      50.000000000000
      1988    2      122.063393930000      57.970000000000      50.000000000000
      1989    2      119.110247290000      63.084999990000      50.000000000000
      1990    2      122.063393930000      61.379999990000      50.000000000000
      1991    2      119.110247290000      66.495000000000      50.000000000000
      1992    2      122.063393930000      64.789999990000      50.000000000000
      1993    2      125.016540550000      56.264999990000      50.000000000000
      1994    2      127.969687180000      54.559999990000      50.000000000000
      1995    2      125.016540550000      59.674999990000      50.000000000000
      1996    2      127.969687180000      57.970000000000      50.000000000000
      1997    2      125.016540550000      63.084999990000      50.000000000000
      1998    2      127.969687180000      61.379999990000      50.000000000000
      1999    2      125.016540550000      66.495000000000      50.000000000000
      2000    2      127.969687180000      64.789999990000      50.000000000000
      2001    3      118.125865090000      54.559999990000      50.000000000000
      2002    3      121.079011710000      56.264999990000      50.000000000000
      2003    3      118.125865090000      57.970000000000      50.000000000000
      2004    3      121.079011710000      59.674999990000      50.000000000000
      2005    3      118.125865090000      61.379999990000      50.000000000000
      2006    3      121.079011710000      63.084999990000      50.000000000000
      2007    3      118.125865090000      64.789999990000      50.000000000000
      2008    3      121.079011710000      66.495000000000      50.000000000000
      2009    3      124.032158350000      54.559999990000      50.000000000000
      2010    3      126.985304970000      56.264999990000      50.000000000000
      2011    3      124.032158350000      57.970000000000      50.000000000000
      2012    3      126.985304970000      59.674999990000      50.000000000000
      2013    3      124.032158350000      61.379999990000      50.000000000000
      2014    3      126.985304970000      63.084999990000      50.000000000000
      2015    3      124.032158350000      64.789999990000      50.000000000000
      2016    3      126.985304970000      66.495000000000      50.000000000000
      2017    2      130.922833800000      56.264999990000      50.000000000000
      2018    2      133.875980440000      54.559999990000      50.000000000000
      2019    2      130.922833800000      59.674999990000      50.000000000000
      2020    2      133.875980440000      57.970000000000      50.000000000000
      2021    2      130.922833800000      63.084999990000      50.000000000000
      2022    2      133.875980440000      61.379999990000      50.000000000000
      2023    2      130.922833800000      66.495000000000      50.000000000000
      2024    2      133.875980440000      64.789999990000      50.000000000000
      2025    1      136.829127060000      56.264999990000      50.000000000000
      2026    2      139.782273690000      54.559999990000      50.000000000000
      2027    2      136.829127060000      59.674999990000      50.000000000000
      2028    2      139.782273690000      57.970000000000      50.000000000000
      2029    2      136.829127060000      63.084999990000      50.000000000000
      2030    2      139.782273690000      61.379999990000      50.000000000000
      2031    2      136.829127060000      66.495000000000      50.000000000000
      2032    2      139.782273690000      64.789999990000      50.000000000000
      2033    3      129.938451600000      54.559999990000      50.000000000000
      2034    3      132.891598220000      56.264999990000      50.000000000000
      2035    3      129.938451600000      57.970000000000      50.000000000000
      2036    3      132.891598220000      59.674999990000      50.000000000000
      2037    3      129.938451600000      61.379999990000      50.000000000000
      2038    3      132.891598220000      63.084999990000      50.000000000000
      2039    3      129.938451600000      64.789999990000      50.000000000000
      2040    3      132.891598220000      66.495000000000      50.000000000000
      2041    3      135.844744850000      54.559999990000      50.000000000000
      2042    3      138.797891480000      56.264999990000      50.000000000000
      2043    3      135.844744850000      57.970000000000      50.000000000000
      2044    3      138.797891480000      59.674999990000      50.000000000000
      2045    3      135.844744850000      61.379999990000      50.000000000000
      2046    3      138.797891480000      63.084999990000      50.000000000000
      2047    3      135.844744850000      64.789999990000      50.000000000000
      2048    3      138.797891480000      66.495000000000      50.000000000000
      2049    2      142.735420310000      56.264999990000      50.000000000000
      2050    2      145.688566950000      54.559999990000      50.000000000000
      2051    2      142.735420310000      59.674999990000      50.000000000000
      2052    2      145.688566950000      57.970000000000      50.000000000000
      2053    2      142.735420310000      63.084999990000      50.000000000000
      2054    2      145.688566950000      61.379999990000      50.000000000000
      2055    2      142.735420310000      66.495000000000      50.000000000000
      2056    1      145.688566950000      64.789999990000      50.000000000000
      2057    1      148.641713570000      56.264999990000      50.000000000000
      2058    2      151.594860200000      54.559999990000      50.000000000000
      2059    2      148.641713570000      59.674999990000      50.000000000000
      2060    2      151.594860200000      57.970000000000      50.000000000000
      2061    2      148.641713570000      63.084999990000      50.000000000000
      2062    2      151.594860200000      61.379999990000      50.000000000000
      2063    2      148.641713570000      66.495000000000      50.000000000000
      2064    2      151.594860200000      64.789999990000      50.000000000000
      2065    3      141.751038110000      54.559999990000      50.000000000000
      2066    3      144.704184730000      56.264999990000      50.000000000000
      2067    3      141.751038110000      57.970000000000      50.000000000000
      2068    3      144.704184730000      59.674999990000      50.000000000000
      2069    3      141.751038110000      61.379999990000      50.000000000000
      2070    3      144.704184730000      63.084999990000      50.000000000000
      2071    3      141.751038110000      64.789999990000      50.000000000000
      2072    3      144.704184730000      66.495000000000      50.000000000000
      2073    3      147.657331360000      54.559999990000      50.000000000000
      2074    3      150.610477990000      56.264999990000      50.000000000000
      2075    3      147.657331360000      57.970000000000      50.000000000000
      2076    3      150.610477990000      59.674999990000      50.000000000000
      2077    3      147.657331360000      61.379999990000      50.000000000000
      2078    3      150.610477990000      63.084999990000      50.000000000000
      2079    3      147.657331360000      64.789999990000      50.000000000000
      2080    3      150.610477990000      66.495000000000      50.000000000000
      2081    2        0.984382200000      69.904999990000      50.000000000000
      2082    2        3.937528840000      68.199999990000      50.000000000000
      2083    2        0.984382200000      73.314999990000      50.000000000000
      2084    2        3.937528840000      71.609999990000      50.000000000000
      2085    2        0.984382200000      76.724999990000      50.000000000000
      2086    2        3.937528840000      75.019999990000      50.000000000000
      2087    1        0.984382200000      80.134999990000      50.000000000000
      2088    2        3.937528840000      78.429999990000      50.000000000000
      2089    2        6.890675460000      69.904999990000      50.000000000000
      2090    2        9.843822090000      68.199999990000      50.000000000000
      2091    2        6.890675460000      73.314999990000      50.000000000000
      2092    2        9.843822090000      71.609999990000      50.000000000000
      2093    2        6.890675460000      76.724999990000      50.000000000000
      2094    2        9.843822090000      75.019999990000      50.000000000000
      2095    2        6.890675460000      80.134999990000      50.000000000000
      2096    2        9.843822090000      78.429999990000      50.000000000000
      2097    3        0.000000000000      68.199999990000      50.000000000000
      2098    3        2.953146620000      69.904999990000      50.000000000000
      2099    3        0.000000000000      71.609999990000      50.000000000000
      2100    3        2.953146620000      73.314999990000      50.000000000000
      2101    3        0.000000000000      75.019999990000      50.000000000000
      2102    3        2.953146620000      76.724999990000      50.000000000000
      2103    3        0.000000000000      78.429999990000      50.000000000000
      2104    3        2.953146620000      80.134999990000      50.000000000000
      2105    3        5.906293250000      68.199999990000      50.000000000000
      2106    3        8.859439880000      69.904999990000      50.000000000000
      2107    3        5.906293250000      71.609999990000      50.000000000000
      2108    3        8.859439880000      73.314999990000      50.000000000000
      2109    3        5.906293250000      75.019999990000      50.000000000000
      2110    3        8.859439880000      76.724999990000      50.000000000000
      2111    3        5.906293250000      78.429999990000      50.000000000000
      2112    3        8.859439880000      80.134999990000      50.000000000000
      2113    1       12.796968710000      69.904999990000      50.000000000000
      2114    2       15.750115350000      68.199999990000      50.000000000000
      2115    2       12.796968710000      73.314999990000      50.000000000000
      2116    2       15.750115350000      71.609999990000      50.000000000000
      2117    2       12.796968710000      76.724999990000      50.000000000000
      2118    2       15.750115350000      75.019999990000      50.000000000000
      2119    2       12.796968710000      80.134999990000      50.000000000000
      2120    2       15.750115350000      78.429999990000      50.000000000000
      2121    2       18.703261970000      69.904999990000      50.000000000000
      2122    2       21.656408600000      68.199999990000      50.000000000000
      2123    2       18.703261970000      73.314999990000      50.000000000000
      2124    2       21.656408600000      71.609999990000      50.000000000000
      2125    2       18.703261970000      76.724999990000      50.000000000000
      2126    2       21.656408600000      75.019999990000      50.000000000000
      2127    2       18.703261970000      80.134999990000      50.000000000000
      2128    2       21.656408600000      78.429999990000      50.000000000000
      2129    3       11.812586510000      68.199999990000      50.000000000000
      2130    3       14.765733130000      69.904999990000      50.000000000000
      2131    3       11.812586510000      71.609999990000      50.000000000000
      2132    3       14.765733130000      73.314999990000      50.000000000000
      2133    3       11.812586510000      75.019999990000      50.000000000000
      2134    3       14.765733130000      76.724999990000      50.000000000000
      2135    3       11.812586510000      78.429999990000      50.000000000000
      2136    3       14.765733130000      80.134999990000      50.000000000000
      2137    3       17.718879760000      68.199999990000      50.000000000000
      2138    3       20.672026390000      69.904999990000      50.000000000000
      2139    3       17.718879760000      71.609999990000      50.000000000000
      2140    3       20.672026390000      73.314999990000      50.000000000000
      2141    3       17.718879760000      75.019999990000      50.000000000000
      2142    3       20.672026390000      76.724999990000      50.000000000000
      2143    3       17.718879760000      78.429999990000      50.000000000000
      2144    3       20.672026390000      80.134999990000      50.000000000000
      2145    1       24.609555220000      69.904999990000      50.000000000000
      2146    2       27.562701850000      68.199999990000      50.000000000000
      2147    1       24.609555220000      73.314999990000      50.000000000000
      2148    2       27.562701850000      71.609999990000      50.000000000000
      2149    2       24.609555220000      76.724999990000      50.000000000000
      2150    2       27.562701850000      75.019999990000      50.000000000000
      2151    2       24.609555220000      80.134999990000      50.000000000000
      2152    2       27.562701850000      78.429999990000      50.000000000000
      2153    2       30.515848480000      69.904999990000      50.000000000000
      2154    2       33.468995110000      68.199999990000      50.000000000000
      2155    2       30.515848480000      73.314999990000      50.000000000000
      2156    2       33.468995110000      71.609999990000      50.000000000000
      2157    2       30.515848480000      76.724999990000      50.000000000000
      2158    2       33.468995110000      75.019999990000      50.000000000000
      2159    2       30.515848480000      80.134999990000      50.000000000000
      2160    2       33.468995110000      78.429999990000      50.000000000000
      2161    3       23.625173020000      68.199999990000      50.000000000000
      2162    3       26.578319640000      69.904999990000      50.000000000000
      2163    3       23.625173020000      71.609999990000      50.000000000000
      2164    3       26.578319640000      73.314999990000      50.000000000000
      2165    3       23.625173020000      75.019999990000      50.000000000000
      2166    3       26.578319640000      76.724999990000      50.000000000000
      2167    3       23.625173020000      78.429999990000      50.000000000000
      2168    3       26.578319640000      80.134999990000      50.000000000000
      2169    3       29.531466270000      68.199999990000      50.000000000000
      2170    3       32.484612890000      69.904999990000      50.000000000000
      2171    3       29.531466270000      71.609999990000      50.000000000000
      2172    3       32.484612890000      73.314999990000      50.000000000000
      2173    3       29.531466270000      75.019999990000      50.000000000000
      2174    3       32.484612890000      76.724999990000      50.000000000000
      2175    3       29.531466270000      78.429999990000      50.000000000000
      2176    3       32.484612890000      80.134999990000      50.000000000000
      2177    2       36.422141730000      69.904999990000      50.000000000000
      2178    2       39.375288360000      68.199999990000      50.000000000000
      2179    2       36.422141730000      73.314999990000      50.000000000000
      2180    2       39.375288360000      71.609999990000      50.000000000000
      2181    2       36.422141730000      76.724999990000      50.000000000000
      2182    1       39.375288360000      75.019999990000      50.000000000000
      2183    2       36.422141730000      80.134999990000      50.000000000000
      2184    1       39.375288360000      78.429999990000      50.000000000000
      2185    2       42.328434990000      69.904999990000      50.000000000000
      2186    2       45.281581620000      68.199999990000      50.000000000000
      2187    2       42.328434990000      73.314999990000      50.000000000000
      2188    2       45.281581620000      71.609999990000      50.000000000000
      2189    2       42.328434990000      76.724999990000      50.000000000000
      2190    2       45.281581620000      75.019999990000      50.000000000000
      2191    2       42.328434990000      80.134999990000      50.000000000000
      2192    1       45.281581620000      78.429999990000      50.000000000000
      2193    3       35.437759530000      68.199999990000      50.000000000000
      2194    3       38.390906150000      69.904999990000      50.000000000000
      2195    3       35.437759530000      71.609999990000      50.000000000000
      2196    3       38.390906150000      73.314999990000      50.000000000000
      2197    3       35.437759530000      75.019999990000      50.000000000000
      2198    3       38.390906150000      76.724999990000      50.000000000000
      2199    3       35.437759530000      78.429999990000      50.000000000000
      2200    3       38.390906150000      80.134999990000      50.000000000000
      2201    3       41.344052780000      68.199999990000      50.000000000000
      2202    3       44.297199400000      69.904999990000      50.000000000000
      2203    3       41.344052780000      71.609999990000      50.000000000000
      2204    3       44.297199400000      73.314999990000      50.000000000000
      2205    3       41.344052780000      75.019999990000      50.000000000000
      2206    3       44.297199400000      76.724999990000      50.000000000000
      2207    3       41.344052780000      78.429999990000      50.000000000000
      2208    3       44.297199400000      80.134999990000      50.000000000000
      2209    2       48.234728240000      69.904999990000      50.000000000000
      2210    2       51.187874870000      68.199999990000      50.000000000000
      2211    2       48.234728240000      73.314999990000      50.000000000000
      2212    2       51.187874870000      71.609999990000      50.000000000000
      2213    2       48.234728240000      76.724999990000      50.000000000000
      2214    2       51.187874870000      75.019999990000      50.000000000000
      2215    2       48.234728240000      80.134999990000      50.000000000000
      2216    2       51.187874870000      78.429999990000      50.000000000000
      2217    2       54.141021490000      69.904999990000      50.000000000000
      2218    2       57.094168130000      68.199999990000      50.000000000000
      2219    2       54.141021490000      73.314999990000      50.000000000000
      2220    1       57.094168130000      71.609999990000      50.000000000000
      2221    2       54.141021490000      76.724999990000      50.000000000000
      2222    2       57.094168130000      75.019999990000      50.000000000000
      2223    2       54.141021490000      80.134999990000      50.000000000000
      2224    2       57.094168130000      78.429999990000      50.000000000000
      2225    3       47.250346040000      68.199999990000      50.000000000000
      2226    3       50.203492660000      69.904999990000      50.000000000000
      2227    3       47.250346040000      71.609999990000      50.000000000000
      2228    3       50.203492660000      73.314999990000      50.000000000000
      2229    3       47.250346040000      75.019999990000      50.000000000000
      2230    3       50.203492660000      76.724999990000      50.000000000000
      2231    3       47.250346040000      78.429999990000      50.000000000000
      2232    3       50.203492660000      80.134999990000      50.000000000000
      2233    3       53.156639290000      68.199999990000      50.000000000000
      2234    3       56.109785910000      69.904999990000      50.000000000000
      2235    3       53.156639290000      71.609999990000      50.000000000000
      2236    3       56.109785910000      73.314999990000      50.000000000000
      2237    3       53.156639290000      75.019999990000      50.000000000000
      2238    3       56.109785910000      76.724999990000      50.000000000000
      2239    3       53.156639290000      78.429999990000      50.000000000000
      2240    3       56.109785910000      80.134999990000      50.000000000000
      2241    2       60.047314750000      69.904999990000      50.000000000000
      2242    2       63.000461380000      68.199999990000      50.000000000000
      2243    2       60.047314750000      73.314999990000      50.000000000000
      2244    2       63.000461380000      71.609999990000      50.000000000000
      2245    2       60.047314750000      76.724999990000      50.000000000000
      2246    2       63.000461380000      75.019999990000      50.000000000000
      2247    2       60.047314750000      80.134999990000      50.000000000000
      2248    2       63.000461380000      78.429999990000      50.000000000000
      2249    2       65.953608000000      69.904999990000      50.000000000000
      2250    2       68.906754640000      68.199999990000      50.000000000000
      2251    2       65.953608000000      73.314999990000      50.000000000000
      2252    2       68.906754640000      71.609999990000      50.000000000000
      2253    2       65.953608000000      76.724999990000      50.000000000000
      2254    2       68.906754640000      75.019999990000      50.000000000000
      2255    2       65.953608000000      80.134999990000      50.000000000000
      2256    2       68.906754640000      78.429999990000      50.000000000000
      2257    3       59.062932550000      68.199999990000      50.000000000000
      2258    3       62.016079170000      69.904999990000      50.000000000000
      2259    3       59.062932550000      71.609999990000      50.000000000000
      2260    3       62.016079170000      73.314999990000      50.000000000000
      2261    3       59.062932550000      75.019999990000      50.000000000000
      2262    3       62.016079170000      76.724999990000      50.000000000000
      2263    3       59.062932550000      78.429999990000      50.000000000000
      2264    3       62.016079170000      80.134999990000      50.000000000000
      2265    3       64.969225800000      68.199999990000      50.000000000000
      2266    3       67.922372420000      69.904999990000      50.000000000000
      2267    3       64.969225800000      71.609999990000      50.000000000000
      2268    3       67.922372420000      73.314999990000      50.000000000000
      2269    3       64.969225800000      75.019999990000      50.000000000000
      2270    3       67.922372420000      76.724999990000      50.000000000000
      2271    3       64.969225800000      78.429999990000      50.000000000000
      2272    3       67.922372420000      80.134999990000      50.000000000000
      2273    2       71.859901260000      69.904999990000      50.000000000000
      2274    2       74.813047890000      68.199999990000      50.000000000000
      2275    2       71.859901260000      73.314999990000      50.000000000000
      2276    2       74.813047890000      71.609999990000      50.000000000000
      2277    2       71.859901260000      76.724999990000      50.000000000000
      2278    2       74.813047890000      75.019999990000      50.000000000000
      2279    2       71.859901260000      80.134999990000      50.000000000000
      2280    2       74.813047890000      78.429999990000      50.000000000000
      2281    2       77.766194510000      69.904999990000      50.000000000000
      2282    2       80.719341150000      68.199999990000      50.000000000000
      2283    2       77.766194510000      73.314999990000      50.000000000000
      2284    2       80.719341150000      71.609999990000      50.000000000000
      2285    2       77.766194510000      76.724999990000      50.000000000000
      2286    2       80.719341150000      75.019999990000      50.000000000000
      2287    2       77.766194510000      80.134999990000      50.000000000000
      2288    2       80.719341150000      78.429999990000      50.000000000000
      2289    3       70.875519050000      68.199999990000      50.000000000000
      2290    3       73.828665680000      69.904999990000      50.000000000000
      2291    3       70.875519050000      71.609999990000      50.000000000000
      2292    3       73.828665680000      73.314999990000      50.000000000000
      2293    3       70.875519050000      75.019999990000      50.000000000000
      2294    3       73.828665680000      76.724999990000      50.000000000000
      2295    3       70.875519050000      78.429999990000      50.000000000000
      2296    3       73.828665680000      80.134999990000      50.000000000000
      2297    3       76.781812310000      68.199999990000      50.000000000000
      2298    3       79.734958930000      69.904999990000      50.000000000000
      2299    3       76.781812310000      71.609999990000      50.000000000000
      2300    3       79.734958930000      73.314999990000      50.000000000000
      2301    3       76.781812310000      75.019999990000      50.000000000000
      2302    3       79.734958930000      76.724999990000      50.000000000000
      2303    3       76.781812310000      78.429999990000      50.000000000000
      2304    3       79.734958930000      80.134999990000      50.000000000000
      2305    2       83.672487770000      69.904999990000      50.000000000000
      2306    2       86.625634400000      68.199999990000      50.000000000000
      2307    1       83.672487770000      73.314999990000      50.000000000000
      2308    2       86.625634400000      71.609999990000      50.000000000000
      2309    2       83.672487770000      76.724999990000      50.000000000000
      2310    2       86.625634400000      75.019999990000      50.000000000000
      2311    2       83.672487770000      80.134999990000      50.000000000000
      2312    2       86.625634400000      78.429999990000      50.000000000000
      2313    2       89.578781020000      69.904999990000      50.000000000000
      2314    2       92.531927650000      68.199999990000      50.000000000000
      2315    2       89.578781020000      73.314999990000      50.000000000000
      2316    2       92.531927650000      71.609999990000      50.000000000000
      2317    2       89.578781020000      76.724999990000      50.000000000000
      2318    2       92.531927650000      75.019999990000      50.000000000000
      2319    1       89.578781020000      80.134999990000      50.000000000000
      2320    2       92.531927650000      78.429999990000      50.000000000000
      2321    3       82.688105560000      68.199999990000      50.000000000000
      2322    3       85.641252190000      69.904999990000      50.000000000000
      2323    3       82.688105560000      71.609999990000      50.000000000000
      2324    3       85.641252190000      73.314999990000      50.000000000000
      2325    3       82.688105560000      75.019999990000      50.000000000000
      2326    3       85.641252190000      76.724999990000      50.000000000000
      2327    3       82.688105560000      78.429999990000      50.000000000000
      2328    3       85.641252190000      80.134999990000      50.000000000000
      2329    3       88.594398820000      68.199999990000      50.000000000000
      2330    3       91.547545440000      69.904999990000      50.000000000000
      2331    3       88.594398820000      71.609999990000      50.000000000000
      2332    3       91.547545440000      73.314999990000      50.000000000000
      2333    3       88.594398820000      75.019999990000      50.000000000000
      2334    3       91.547545440000      76.724999990000      50.000000000000
      2335    3       88.594398820000      78.429999990000      50.000000000000
      2336    3       91.547545440000      80.134999990000      50.000000000000
      2337    1       95.485074280000      69.904999990000      50.000000000000
      2338    2       98.438220910000      68.199999990000      50.000000000000
      2339    2       95.485074280000      73.314999990000      50.000000000000
      2340    2       98.438220910000      71.609999990000      50.000000000000
      2341    2       95.485074280000      76.724999990000      50.000000000000
      2342    2       98.438220910000      75.019999990000      50.000000000000
      2343    2       95.485074280000      80.134999990000      50.000000000000
      2344    2       98.438220910000      78.429999990000      50.000000000000
      2345    2      101.391367530000      69.904999990000      50.000000000000
      2346    2      104.344514160000      68.199999990000      50.000000000000
      2347    2      101.391367530000      73.314999990000      50.000000000000
      2348    2      104.344514160000      71.609999990000      50.000000000000
      2349    1      101.391367530000      76.724999990000      50.000000000000
      2350    2      104.344514160000      75.019999990000      50.000000000000
      2351    2      101.391367530000      80.134999990000      50.000000000000
      2352    2      104.344514160000      78.429999990000      50.000000000000
      2353    3       94.500692070000      68.199999990000      50.000000000000
      2354    3       97.453838690000      69.904999990000      50.000000000000
      2355    3       94.500692070000      71.609999990000      50.000000000000
      2356    3       97.453838690000      73.314999990000      50.000000000000
      2357    3       94.500692070000      75.019999990000      50.000000000000
      2358    3       97.453838690000      76.724999990000      50.000000000000
      2359    3       94.500692070000      78.429999990000      50.000000000000
      2360    3       97.453838690000      80.134999990000      50.000000000000
      2361    3      100.406985330000      68.199999990000      50.000000000000
      2362    3      103.360131950000      69.904999990000      50.000000000000
      2363    3      100.406985330000      71.609999990000      50.000000000000
      2364    3      103.360131950000      73.314999990000      50.000000000000
      2365    3      100.406985330000      75.019999990000      50.000000000000
      2366    3      103.360131950000      76.724999990000      50.000000000000
      2367    3      100.406985330000      78.429999990000      50.000000000000
      2368    3      103.360131950000      80.134999990000      50.000000000000
      2369    2      107.297660790000      69.904999990000      50.000000000000
      2370    2      110.250807420000      68.199999990000      50.000000000000
      2371    2      107.297660790000      73.314999990000      50.000000000000
      2372    2      110.250807420000      71.609999990000      50.000000000000
      2373    2      107.297660790000      76.724999990000      50.000000000000
      2374    2      110.250807420000      75.019999990000      50.000000000000
      2375    1      107.297660790000      80.134999990000      50.000000000000
      2376    2      110.250807420000      78.429999990000      50.000000000000
      2377    2      113.203954040000      69.904999990000      50.000000000000
      2378    2      116.157100670000      68.199999990000      50.000000000000
      2379    1      113.203954040000      73.314999990000      50.000000000000
      2380    2      116.157100670000      71.609999990000      50.000000000000
      2381    2      113.203954040000      76.724999990000      50.000000000000
      2382    2      116.157100670000      75.019999990000      50.000000000000
      2383    2      113.203954040000      80.134999990000      50.000000000000
      2384    2      116.157100670000      78.429999990000      50.000000000000
      2385    3      106.313278580000      68.199999990000      50.000000000000
      2386    3      109.266425200000      69.904999990000      50.000000000000
      2387    3      106.313278580000      71.609999990000      50.000000000000
      2388    3      109.266425200000      73.314999990000      50.000000000000
      2389    3      106.313278580000      75.019999990000      50.000000000000
      2390    3      109.266425200000      76.724999990000      50.000000000000
      2391    3      106.313278580000      78.429999990000      50.000000000000
      2392    3      109.266425200000      80.134999990000      50.000000000000
      2393    3      112.219571840000      68.199999990000      50.000000000000
      2394    3      115.172718460000      69.904999990000      50.000000000000
      2395    3      112.219571840000      71.609999990000      50.000000000000
      2396    3      115.172718460000      73.314999990000      50.000000000000
      2397    3      112.219571840000      75.019999990000      50.000000000000
      2398    3      115.172718460000      76.724999990000      50.000000000000
      2399    3      112.219571840000      78.429999990000      50.000000000000
      2400    3      115.172718460000      80.134999990000      50.000000000000
      2401    2      119.110247290000      69.904999990000      50.000000000000
      2402    2      122.063393930000      68.199999990000      50.000000000000
      2403    2      119.110247290000      73.314999990000      50.000000000000
      2404    2      122.063393930000      71.609999990000      50.000000000000
      2405    2      119.110247290000      76.724999990000      50.000000000000
      2406    2      122.063393930000      75.019999990000      50.000000000000
      2407    2      119.110247290000      80.134999990000      50.000000000000
      2408    2      122.063393930000      78.429999990000      50.000000000000
      2409    2      125.016540550000      69.904999990000      50.000000000000
      2410    2      127.969687180000      68.199999990000      50.000000000000
      2411    2      125.016540550000      73.314999990000      50.000000000000
      2412    2      127.969687180000      71.609999990000      50.000000000000
      2413    2      125.016540550000      76.724999990000      50.000000000000
      2414    2      127.969687180000      75.019999990000      50.000000000000
      2415    2      125.016540550000      80.134999990000      50.000000000000
      2416    2      127.969687180000      78.429999990000      50.000000000000
      2417    3      118.125865090000      68.199999990000      50.000000000000
      2418    3      121.079011710000      69.904999990000      50.000000000000
      2419    3      118.125865090000      71.609999990000      50.000000000000
      2420    3      121.079011710000      73.314999990000      50.000000000000
      2421    3      118.125865090000      75.019999990000      50.000000000000
      2422    3      121.079011710000      76.724999990000      50.000000000000
      2423    3      118.125865090000      78.429999990000      50.000000000000
      2424    3      121.079011710000      80.134999990000      50.000000000000
      2425    3      124.032158350000      68.199999990000      50.000000000000
      2426    3      126.985304970000      69.904999990000      50.000000000000
      2427    3      124.032158350000      71.609999990000      50.000000000000
      2428    3      126.985304970000      73.314999990000      50.000000000000
      2429    3      124.032158350000      75.019999990000      50.000000000000
      2430    3      126.985304970000      76.724999990000      50.000000000000
      2431    3      124.032158350000      78.429999990000      50.000000000000
      2432    3      126.985304970000      80.134999990000      50.000000000000
      2433    2      130.922833800000      69.904999990000      50.000000000000
      2434    2      133.875980440000      68.199999990000      50.000000000000
      2435    2      130.922833800000      73.314999990000      50.000000000000
      2436    2      133.875980440000      71.609999990000      50.000000000000
      2437    2      130.922833800000      76.724999990000      50.000000000000
      2438    2      133.875980440000      75.019999990000      50.000000000000
      2439    2      130.922833800000      80.134999990000      50.000000000000
      2440    2      133.875980440000      78.429999990000      50.000000000000
      2441    2      136.829127060000      69.904999990000      50.000000000000
      2442    2      139.782273690000      68.199999990000      50.000000000000
      2443    2      136.829127060000      73.314999990000      50.000000000000
      2444    2      139.782273690000      71.609999990000      50.000000000000
      2445    2      136.829127060000      76.724999990000      50.000000000000
      2446    2      139.782273690000      75.019999990000      50.000000000000
      2447    2      136.829127060000      80.134999990000      50.000000000000
      2448    2      139.782273690000      78.429999990000      50.000000000000
      2449    3      129.938451600000      68.199999990000      50.000000000000
      2450    3      132.891598220000      69.904999990000      50.000000000000
      2451    3      129.938451600000      71.609999990000      50.000000000000
      2452    3      132.891598220000      73.314999990000      50.000000000000
      2453    3      129.938451600000      75.019999990000      50.000000000000
      2454    3      132.891598220000      76.724999990000      50.000000000000
      2455    3      129.938451600000      78.429999990000      50.000000000000
      2456    3      132.891598220000      80.134999990000      50.000000000000
      2457    3      135.844744850000      68.199999990000      50.000000000000
      2458    3      138.797891480000      69.904999990000      50.000000000000
      2459    3      135.844744850000      71.609999990000      50.000000000000
      2460    3      138.797891480000      73.314999990000      50.000000000000
      2461    3      135.844744850000      75.019999990000      50.000000000000
      2462    3      138.797891480000      76.724999990000      50.000000000000
      2463    3      135.844744850000      78.429999990000      50.000000000000
      2464    3      138.797891480000      80.134999990000      50.000000000000
      2465    2      142.735420310000      69.904999990000      50.000000000000
      2466    2      145.688566950000      68.199999990000      50.000000000000
      2467    2      142.735420310000      73.314999990000      50.000000000000
      2468    2      145.688566950000      71.609999990000      50.000000000000
      2469    2      142.735420310000      76.724999990000      50.000000000000
      2470    2      145.688566950000      75.019999990000      50.000000000000
      2471    2      142.735420310000      80.134999990000      50.000000000000
      2472    2      145.688566950000      78.429999990000      50.000000000000
      2473    2      148.641713570000      69.904999990000      50.000000000000
      2474    2      151.594860200000      68.199999990000      50.000000000000
      2475    2      148.641713570000      73.314999990000      50.000000000000
      2476    2      151.594860200000      71.609999990000      50.000000000000
      2477    2      148.641713570000      76.724999990000      50.000000000000
      2478    2      151.594860200000      75.019999990000      50.000000000000
      2479    2      148.641713570000      80.134999990000      50.000000000000
      2480    2      151.594860200000      78.429999990000      50.000000000000
      2481    3      141.751038110000      68.199999990000      50.000000000000
      2482    3      144.704184730000      69.904999990000      50.000000000000
      2483    3      141.751038110000      71.609999990000      50.000000000000
      2484    3      144.704184730000      73.314999990000      50.000000000000
      2485    3      141.751038110000      75.019999990000      50.000000000000
      2486    3      144.704184730000      76.724999990000      50.000000000000
      2487    3      141.751038110000      78.429999990000      50.000000000000
      2488    3      144.704184730000      80.134999990000      50.000000000000
      2489    3      147.657331360000      68.199999990000      50.000000000000
      2490    3      150.610477990000      69.904999990000      50.000000000000
      2491    3      147.657331360000      71.609999990000      50.000000000000
      2492    3      150.610477990000      73.314999990000      50.000000000000
      2493    3      147.657331360000      75.019999990000      50.000000000000
      2494    3      150.610477990000      76.724999990000      50.000000000000
      2495    3      147.657331360000      78.429999990000      50.000000000000
      2496    3      150.610477990000      80.134999990000      50.000000000000
      2497    2        0.984382200000      83.544999990000      50.000000000000
      2498    2        3.937528840000      81.839999990000      50.000000000000
      2499    2        0.984382200000      86.954999990000      50.000000000000
      2500    2        3.937528840000      85.249999990000      50.000000000000
      2501    2        0.984382200000      90.364999990000      50.000000000000
      2502    2        3.937528840000      88.659999980000      50.000000000000
      2503    2        0.984382200000      93.774999990000      50.000000000000
      2504    2        3.937528840000      92.069999990000      50.000000000000
      2505    2        6.890675460000      83.544999990000      50.000000000000
      2506    2        9.843822090000      81.839999990000      50.000000000000
      2507    2        6.890675460000      86.954999990000      50.000000000000
      2508    2        9.843822090000      85.249999990000      50.000000000000
      2509    2        6.890675460000      90.364999990000      50.000000000000
      2510    2        9.843822090000      88.659999980000      50.000000000000
      2511    2        6.890675460000      93.774999990000      50.000000000000
      2512    2        9.843822090000      92.069999990000      50.000000000000
      2513    3        0.000000000000      81.839999990000      50.000000000000
      2514    3        2.953146620000      83.544999990000      50.000000000000
      2515    3        0.000000000000      85.249999990000      50.000000000000
      2516    3        2.953146620000      86.954999990000      50.000000000000
      2517    3        0.000000000000      88.659999980000      50.000000000000
      2518    3        2.953146620000      90.364999990000      50.000000000000
      2519    3        0.000000000000      92.069999990000      50.000000000000
      2520    3        2.953146620000      93.774999990000      50.000000000000
      2521    3        5.906293250000      81.839999990000      50.000000000000
      2522    3        8.859439880000      83.544999990000      50.000000000000
      2523    3        5.906293250000      85.249999990000      50.000000000000
      2524    3        8.859439880000      86.954999990000      50.000000000000
      2525    3        5.906293250000      88.659999980000      50.000000000000
      2526    3        8.859439880000      90.364999990000      50.000000000000
      2527    3        5.906293250000      92.069999990000      50.000000000000
      2528    3        8.859439880000      93.774999990000      50.000000000000
      2529    2       12.796968710000      83.544999990000      50.000000000000
      2530    2       15.750115350000      81.839999990000      50.000000000000
      2531    2       12.796968710000      86.954999990000      50.000000000000
      2532    2       15.750115350000      85.249999990000      50.000000000000
      2533    2       12.796968710000      90.364999990000      50.000000000000
      2534    2       15.750115350000      88.659999980000      50.000000000000
      2535    2       12.796968710000      93.774999990000      50.000000000000
      2536    2       15.750115350000      92.069999990000      50.000000000000
      2537    2       18.703261970000      83.544999990000      50.000000000000
      2538    2       21.656408600000      81.839999990000      50.000000000000
      2539    2       18.703261970000      86.954999990000      50.000000000000
      2540    2       21.656408600000      85.249999990000      50.000000000000
      2541    2       18.703261970000      90.364999990000      50.000000000000
      2542    2       21.656408600000      88.659999980000      50.000000000000
      2543    2       18.703261970000      93.774999990000      50.000000000000
      2544    2       21.656408600000      92.069999990000      50.000000000000
      2545    3       11.812586510000      81.839999990000      50.000000000000
      2546    3       14.765733130000      83.544999990000      50.000000000000
      2547    3       11.812586510000      85.249999990000      50.000000000000
      2548    3       14.765733130000      86.954999990000      50.000000000000
      2549    3       11.812586510000      88.659999980000      50.000000000000
      2550    3       14.765733130000      90.364999990000      50.000000000000
      2551    3       11.812586510000      92.069999990000      50.000000000000
      2552    3       14.765733130000      93.774999990000      50.000000000000
      2553    3       17.718879760000      81.839999990000      50.000000000000
      2554    3       20.672026390000      83.544999990000      50.000000000000
      2555    3       17.718879760000      85.249999990000      50.000000000000
      2556    3       20.672026390000      86.954999990000      50.000000000000
      2557    3       17.718879760000      88.659999980000      50.000000000000
      2558    3       20.672026390000      90.364999990000      50.000000000000
      2559    3       17.718879760000      92.069999990000      50.000000000000
      2560    3       20.672026390000      93.774999990000      50.000000000000
      2561    2       24.609555220000      83.544999990000      50.000000000000
      2562    2       27.562701850000      81.839999990000      50.000000000000
      2563    1       24.609555220000      86.954999990000      50.000000000000
      2564    1       27.562701850000      85.249999990000      50.000000000000
      2565    2       24.609555220000      90.364999990000      50.000000000000
      2566    2       27.562701850000      88.659999980000      50.000000000000
      2567    2       24.609555220000      93.774999990000      50.000000000000
      2568    2       27.562701850000      92.069999990000      50.000000000000
      2569    2       30.515848480000      83.544999990000      50.000000000000
      2570    2       33.468995110000      81.839999990000      50.000000000000
      2571    2       30.515848480000      86.954999990000      50.000000000000
      2572    2       33.468995110000      85.249999990000      50.000000000000
      2573    2       30.515848480000      90.364999990000      50.000000000000
      2574    1       33.468995110000      88.659999980000      50.000000000000
      2575    2       30.515848480000      93.774999990000      50.000000000000
      2576    2       33.468995110000      92.069999990000      50.000000000000
      2577    3       23.625173020000      81.839999990000      50.000000000000
      2578    3       26.578319640000      83.544999990000      50.000000000000
      2579    3       23.625173020000      85.249999990000      50.000000000000
      2580    3       26.578319640000      86.954999990000      50.000000000000
      2581    3       23.625173020000      88.659999980000      50.000000000000
      2582    3       26.578319640000      90.364999990000      50.000000000000
      2583    3       23.625173020000      92.069999990000      50.000000000000
      2584    3       26.578319640000      93.774999990000      50.000000000000
      2585    3       29.531466270000      81.839999990000      50.000000000000
      2586    3       32.484612890000      83.544999990000      50.000000000000
      2587    3       29.531466270000      85.249999990000      50.000000000000
      2588    3       32.484612890000      86.954999990000      50.000000000000
      2589    3       29.531466270000      88.659999980000      50.000000000000
      2590    3       32.484612890000      90.364999990000      50.000000000000
      2591    3       29.531466270000      92.069999990000      50.000000000000
      2592    3       32.484612890000      93.774999990000      50.000000000000
      2593    2       36.422141730000      83.544999990000      50.000000000000
      2594    2       39.375288360000      81.839999990000      50.000000000000
      2595    2       36.422141730000      86.954999990000      50.000000000000
      2596    2       39.375288360000      85.249999990000      50.000000000000
      2597    2       36.422141730000      90.364999990000      50.000000000000
      2598    2       39.375288360000      88.659999980000      50.000000000000
      2599    2       36.422141730000      93.774999990000      50.000000000000
      2600    1       39.375288360000      92.069999990000      50.000000000000
      2601    2       42.328434990000      83.544999990000      50.000000000000
      2602    2       45.281581620000      81.839999990000      50.000000000000
      2603    2       42.328434990000      86.954999990000      50.000000000000
      2604    2       45.281581620000      85.249999990000      50.000000000000
      2605    2       42.328434990000      90.364999990000      50.000000000000
      2606    2       45.281581620000      88.659999980000      50.000000000000
      2607    2       42.328434990000      93.774999990000      50.000000000000
      2608    2       45.281581620000      92.069999990000      50.000000000000
      2609    3       35.437759530000      81.839999990000      50.000000000000
      2610    3       38.390906150000      83.544999990000      50.000000000000
      2611    3       35.437759530000      85.249999990000      50.000000000000
      2612    3       38.390906150000      86.954999990000      50.000000000000
      2613    3       35.437759530000      88.659999980000      50.000000000000
      2614    3       38.390906150000      90.364999990000      50.000000000000
      2615    3       35.437759530000      92.069999990000      50.000000000000
      2616    3       38.390906150000      93.774999990000      50.000000000000
      2617    3       41.344052780000      81.839999990000      50.000000000000
      2618    3       44.297199400000      83.544999990000      50.000000000000
      2619    3       41.344052780000      85.249999990000      50.000000000000
      2620    3       44.297199400000      86.954999990000      50.000000000000
      2621    3       41.344052780000      88.659999980000      50.000000000000
      2622    3       44.297199400000      90.364999990000      50.000000000000
      2623    3       41.344052780000      92.069999990000      50.000000000000
      2624    3       44.297199400000      93.774999990000      50.000000000000
      2625    2       48.234728240000      83.544999990000      50.000000000000
      2626    2       51.187874870000      81.839999990000      50.000000000000
      2627    2       48.234728240000      86.954999990000      50.000000000000
      2628    1       51.187874870000      85.249999990000      50.000000000000
      2629    2       48.234728240000      90.364999990000      50.000000000000
      2630    1       51.187874870000      88.659999980000      50.000000000000
      2631    2       48.234728240000      93.774999990000      50.000000000000
      2632    2       51.187874870000      92.069999990000      50.000000000000
      2633    2       54.141021490000      83.544999990000      50.000000000000
      2634    2       57.094168130000      81.839999990000      50.000000000000
      2635    2       54.141021490000      86.954999990000      50.000000000000
      2636    2       57.094168130000      85.249999990000      50.000000000000
      2637    1       54.141021490000      90.364999990000      50.000000000000
      2638    2       57.094168130000      88.659999980000      50.000000000000
      2639    2       54.141021490000      93.774999990000      50.000000000000
      2640    2       57.094168130000      92.069999990000      50.000000000000
      2641    3       47.250346040000      81.839999990000      50.000000000000
      2642    3       50.203492660000      83.544999990000      50.000000000000
      2643    3       47.250346040000      85.249999990000      50.000000000000
      2644    3       50.203492660000      86.954999990000      50.000000000000
      2645    3       47.250346040000      88.659999980000      50.000000000000
      2646    3       50.203492660000      90.364999990000      50.000000000000
      2647    3       47.250346040000      92.069999990000      50.000000000000
      2648    3       50.203492660000      93.774999990000      50.000000000000
      2649    3       53.156639290000      81.839999990000      50.000000000000
      2650    3       56.109785910000      83.544999990000      50.000000000000
      2651    3       53.156639290000      85.249999990000      50.000000000000
      2652    3       56.109785910000      86.954999990000      50.000000000000
      2653    3       53.156639290000      88.659999980000      50.000000000000
      2654    3       56.109785910000      90.364999990000      50.000000000000
      2655    3       53.156639290000      92.069999990000      50.000000000000
      2656    3       56.109785910000      93.774999990000      50.000000000000
      2657    2       60.047314750000      83.544999990000      50.000000000000
      2658    2       63.000461380000      81.839999990000      50.000000000000
      2659    2       60.047314750000      86.954999990000      50.000000000000
      2660    2       63.000461380000      85.249999990000      50.000000000000
      2661    2       60.047314750000      90.364999990000      50.000000000000
      2662    2       63.000461380000      88.659999980000      50.000000000000
      2663    2       60.047314750000      93.774999990000      50.000000000000
      2664    2       63.000461380000      92.069999990000      50.000000000000
      2665    2       65.953608000000      83.544999990000      50.000000000000
      2666    2       68.906754640000      81.839999990000      50.000000000000
      2667    2       65.953608000000      86.954999990000      50.000000000000
      2668    2       68.906754640000      85.249999990000      50.000000000000
      2669    2       65.953608000000      90.364999990000      50.000000000000
      2670    2       68.906754640000      88.659999980000      50.000000000000
      2671    2       65.953608000000      93.774999990000      50.000000000000
      2672    2       68.906754640000      92.069999990000      50.000000000000
      2673    3       59.062932550000      81.839999990000      50.000000000000
      2674    3       62.016079170000      83.544999990000      50.000000000000
      2675    3       59.062932550000      85.249999990000      50.000000000000
      2676    3       62.016079170000      86.954999990000      50.000000000000
      2677    3       59.062932550000      88.659999980000      50.000000000000
      2678    3       62.016079170000      90.364999990000      50.000000000000
      2679    3       59.062932550000      92.069999990000      50.000000000000
      2680    3       62.016079170000      93.774999990000      50.000000000000
      2681    3       64.969225800000      81.839999990000      50.000000000000
      2682    3       67.922372420000      83.544999990000      50.000000000000
      2683    3       64.969225800000      85.249999990000      50.000000000000
      2684    3       67.922372420000      86.954999990000      50.000000000000
      2685    3       64.969225800000      88.659999980000      50.000000000000
      2686    3       67.922372420000      90.364999990000      50.000000000000
      2687    3       64.969225800000      92.069999990000      50.000000000000
      2688    3       67.922372420000      93.774999990000      50.000000000000
      2689    2       71.859901260000      83.544999990000      50.000000000000
      2690    2       74.813047890000      81.839999990000      50.000000000000
      2691    2       71.859901260000      86.954999990000      50.000000000000
      2692    2       74.813047890000      85.249999990000      50.000000000000
      2693    2       71.859901260000      90.364999990000      50.000000000000
      2694    2       74.813047890000      88.659999980000      50.000000000000
      2695    2       71.859901260000      93.774999990000      50.000000000000
      2696    2       74.813047890000      92.069999990000      50.000000000000
      2697    2       77.766194510000      83.544999990000      50.000000000000
      2698    2       80.719341150000      81.839999990000      50.000000000000
      2699    2       77.766194510000      86.954999990000      50.000000000000
      2700    2       80.719341150000      85.249999990000      50.000000000000
      2701    2       77.766194510000      90.364999990000      50.000000000000
      2702    2       80.719341150000      88.659999980000      50.000000000000
      2703    2       77.766194510000      93.774999990000      50.000000000000
      2704    2       80.719341150000      92.069999990000      50.000000000000
      2705    3       70.875519050000      81.839999990000      50.000000000000
      2706    3       73.828665680000      83.544999990000      50.000000000000
      2707    3       70.875519050000      85.249999990000      50.000000000000
      2708    3       73.828665680000      86.954999990000      50.000000000000
      2709    3       70.875519050000      88.659999980000      50.000000000000
      2710    3       73.828665680000      90.364999990000      50.000000000000
      2711    3       70.875519050000      92.069999990000      50.000000000000
      2712    3       73.828665680000      93.774999990000      50.000000000000
      2713    3       76.781812310000      81.839999990000      50.000000000000
      2714    3       79.734958930000      83.544999990000      50.000000000000
      2715    3       76.781812310000      85.249999990000      50.000000000000
      2716    3       79.734958930000      86.954999990000      50.000000000000
      2717    3       76.781812310000      88.659999980000      50.000000000000
      2718    3       79.734958930000      90.364999990000      50.000000000000
      2719    3       76.781812310000      92.069999990000      50.000000000000
      2720    3       79.734958930000      93.774999990000      50.000000000000
      2721    2       83.672487770000      83.544999990000      50.000000000000
      2722    2       86.625634400000      81.839999990000      50.000000000000
      2723    2       83.672487770000      86.954999990000      50.000000000000
      2724    2       86.625634400000      85.249999990000      50.000000000000
      2725    2       83.672487770000      90.364999990000      50.000000000000
      2726    1       86.625634400000      88.659999980000      50.000000000000
      2727    2       83.672487770000      93.774999990000      50.000000000000
      2728    2       86.625634400000      92.069999990000      50.000000000000
      2729    2       89.578781020000      83.544999990000      50.000000000000
      2730    2       92.531927650000      81.839999990000      50.000000000000
      2731    2       89.578781020000      86.954999990000      50.000000000000
      2732    2       92.531927650000      85.249999990000      50.000000000000
      2733    2       89.578781020000      90.364999990000      50.000000000000
      2734    2       92.531927650000      88.659999980000      50.000000000000
      2735    2       89.578781020000      93.774999990000      50.000000000000
      2736    2       92.531927650000      92.069999990000      50.000000000000
      2737    3       82.688105560000      81.839999990000      50.000000000000
      2738    3       85.641252190000      83.544999990000      50.000000000000
      2739    3       82.688105560000      85.249999990000      50.000000000000
      2740    3       85.641252190000      86.954999990000      50.000000000000
      2741    3       82.688105560000      88.659999980000      50.000000000000
      2742    3       85.641252190000      90.364999990000      50.000000000000
      2743    3       82.688105560000      92.069999990000      50.000000000000
      2744    3       85.641252190000      93.774999990000      50.000000000000
      2745    3       88.594398820000      81.839999990000      50.000000000000
      2746    3       91.547545440000      83.544999990000      50.000000000000
      2747    3       88.594398820000      85.249999990000      50.000000000000
      2748    3       91.547545440000      86.954999990000      50.000000000000
      2749    3       88.594398820000      88.659999980000      50.000000000000
      2750    3       91.547545440000      90.364999990000      50.000000000000
      2751    3       88.594398820000      92.069999990000      50.000000000000
      2752    3       91.547545440000      93.774999990000      50.000000000000
      2753    2       95.485074280000      83.544999990000      50.000000000000
      2754    2       98.438220910000      81.839999990000      50.000000000000
      2755    1       95.485074280000      86.954999990000      50.000000000000
      2756    2       98.438220910000      85.249999990000      50.000000000000
      2757    2       95.485074280000      90.364999990000      50.000000000000
      2758    1       98.438220910000      88.659999980000      50.000000000000
      2759    2       95.485074280000      93.774999990000      50.000000000000
      2760    1       98.438220910000      92.069999990000      50.000000000000
      2761    2      101.391367530000      83.544999990000      50.000000000000
      2762    2      104.344514160000      81.839999990000      50.000000000000
      2763    2      101.391367530000      86.954999990000      50.000000000000
      2764    2      104.344514160000      85.249999990000      50.000000000000
      2765    2      101.391367530000      90.364999990000      50.000000000000
      2766    2      104.344514160000      88.659999980000      50.000000000000
      2767    2      101.391367530000      93.774999990000      50.000000000000
      2768    2      104.344514160000      92.069999990000      50.000000000000
      2769    3       94.500692070000      81.839999990000      50.000000000000
      2770    3       97.453838690000      83.544999990000      50.000000000000
      2771    3       94.500692070000      85.249999990000      50.000000000000
      2772    3       97.453838690000      86.954999990000      50.000000000000
      2773    3       94.500692070000      88.659999980000      50.000000000000
      2774    3       97.453838690000      90.364999990000      50.000000000000
      2775    3       94.500692070000      92.069999990000      50.000000000000
      2776    3       97.453838690000      93.774999990000      50.000000000000
      2777    3      100.406985330000      81.839999990000      50.000000000000
      2778    3      103.360131950000      83.544999990000      50.000000000000
      2779    3      100.406985330000      85.249999990000      50.000000000000
      2780    3      103.360131950000      86.954999990000      50.000000000000
      2781    3      100.406985330000      88.659999980000      50.000000000000
      2782    3      103.360131950000      90.364999990000      50.000000000000
      2783    3      100.406985330000      92.069999990000      50.000000000000
      2784    3      103.360131950000      93.774999990000      50.000000000000
      2785    2      107.297660790000      83.544999990000      50.000000000000
      2786    2      110.250807420000      81.839999990000      50.000000000000
      2787    2      107.297660790000      86.954999990000      50.000000000000
      2788    2      110.250807420000      85.249999990000      50.000000000000
      2789    2      107.297660790000      90.364999990000      50.000000000000
      2790    1      110.250807420000      88.659999980000      50.000000000000
      2791    2      107.297660790000      93.774999990000      50.000000000000
      2792    2      110.250807420000      92.069999990000      50.000000000000
      2793    2      113.203954040000      83.544999990000      50.000000000000
      2794    1      116.157100670000      81.839999990000      50.000000000000
      2795    2      113.203954040000      86.954999990000      50.000000000000
      2796    2      116.157100670000      85.249999990000      50.000000000000
      2797    2      113.203954040000      90.364999990000      50.000000000000
      2798    2      116.157100670000      88.659999980000      50.000000000000
      2799    2      113.203954040000      93.774999990000      50.000000000000
      2800    2      116.157100670000      92.069999990000      50.000000000000
      2801    3      106.313278580000      81.839999990000      50.000000000000
      2802    3      109.266425200000      83.544999990000      50.000000000000
      2803    3      106.313278580000      85.249999990000      50.000000000000
      2804    3      109.266425200000      86.954999990000      50.000000000000
      2805    3      106.313278580000      88.659999980000      50.000000000000
      2806    3      109.266425200000      90.364999990000      50.000000000000
      2807    3      106.313278580000      92.069999990000      50.000000000000
      2808    3      109.266425200000      93.774999990000      50.000000000000
      2809    3      112.219571840000      81.839999990000      50.000000000000
      2810    3      115.172718460000      83.544999990000      50.000000000000
      2811    3      112.219571840000      85.249999990000      50.000000000000
      2812    3      115.172718460000      86.954999990000      50.000000000000
      2813    3      112.219571840000      88.659999980000      50.000000000000
      2814    3      115.172718460000      90.364999990000      50.000000000000
      2815    3      112.219571840000      92.069999990000      50.000000000000
      2816    3      115.172718460000      93.774999990000      50.000000000000
      2817    2      119.110247290000      83.544999990000      50.000000000000
      2818    2      122.063393930000      81.839999990000      50.000000000000
      2819    2      119.110247290000      86.954999990000      50.000000000000
      2820    2      122.063393930000      85.249999990000      50.000000000000
      2821    2      119.110247290000      90.364999990000      50.000000000000
      2822    2      122.063393930000      88.659999980000      50.000000000000
      2823    2      119.110247290000      93.774999990000      50.000000000000
      2824    2      122.063393930000      92.069999990000      50.000000000000
      2825    2      125.016540550000      83.544999990000      50.000000000000
      2826    2      127.969687180000      81.839999990000      50.000000000000
      2827    2      125.016540550000      86.954999990000      50.000000000000
      2828    2      127.969687180000      85.249999990000      50.000000000000
      2829    2      125.016540550000      90.364999990000      50.000000000000
      2830    2      127.969687180000      88.659999980000      50.000000000000
      2831    2      125.016540550000      93.774999990000      50.000000000000
      2832    2      127.969687180000      92.069999990000      50.000000000000
      2833    3      118.125865090000      81.839999990000      50.000000000000
      2834    3      121.079011710000      83.544999990000      50.000000000000
      2835    3      118.125865090000      85.249999990000      50.000000000000
      2836    3      121.079011710000      86.954999990000      50.000000000000
      2837    3      118.125865090000      88.659999980000      50.000000000000
      2838    3      121.079011710000      90.364999990000      50.000000000000
      2839    3      118.125865090000      92.069999990000      50.000000000000
      2840    3      121.079011710000      93.774999990000      50.000000000000
      2841    3      124.032158350000      81.839999990000      50.000000000000
      2842    3      126.985304970000      83.544999990000      50.000000000000
      2843    3      124.032158350000      85.249999990000      50.000000000000
      2844    3      126.985304970000      86.954999990000      50.000000000000
      2845    3      124.032158350000      88.659999980000      50.000000000000
      2846    3      126.985304970000      90.364999990000      50.000000000000
      2847    3      124.032158350000      92.069999990000      50.000000000000
      2848    3      126.985304970000      93.774999990000      50.000000000000
      2849    2      130.922833800000      83.544999990000      50.000000000000
      2850    2      133.875980440000      81.839999990000      50.000000000000
      2851    2      130.922833800000      86.954999990000      50.000000000000
      2852    1      133.875980440000      85.249999990000      50.000000000000
      2853    2      130.922833800000      90.364999990000      50.000000000000
      2854    2      133.875980440000      88.659999980000      50.000000000000
      2855    2      130.922833800000      93.774999990000      50.000000000000
      2856    2      133.875980440000      92.069999990000      50.000000000000
      2857    2      136.829127060000      83.544999990000      50.000000000000
      2858    2      139.782273690000      81.839999990000      50.000000000000
      2859    2      136.829127060000      86.954999990000      50.000000000000
      2860    2      139.782273690000      85.249999990000      50.000000000000
      2861    2      136.829127060000      90.364999990000      50.000000000000
      2862    2      139.782273690000      88.659999980000      50.000000000000
      2863    2      136.829127060000      93.774999990000      50.000000000000
      2864    2      139.782273690000      92.069999990000      50.000000000000
      2865    3      129.938451600000      81.839999990000      50.000000000000
      2866    3      132.891598220000      83.544999990000      50.000000000000
      2867    3      129.938451600000      85.249999990000      50.000000000000
      2868    3      132.891598220000      86.954999990000      50.000000000000
      2869    3      129.938451600000      88.659999980000      50.000000000000
      2870    3      132.891598220000      90.364999990000      50.000000000000
      2871    3      129.938451600000      92.069999990000      50.000000000000
      2872    3      132.891598220000      93.774999990000      50.000000000000
      2873    3      135.844744850000      81.839999990000      50.000000000000
      2874    3      138.797891480000      83.544999990000      50.000000000000
      2875    3      135.844744850000      85.249999990000      50.000000000000
      2876    3      138.797891480000      86.954999990000      50.000000000000
      2877    3      135.844744850000      88.659999980000      50.000000000000
      2878    3      138.797891480000      90.364999990000      50.000000000000
      2879    3      135.844744850000      92.069999990000      50.000000000000
      2880    3      138.797891480000      93.774999990000      50.000000000000
      2881    2      142.735420310000      83.544999990000      50.000000000000
      2882    2      145.688566950000      81.839999990000      50.000000000000
      2883    2      142.735420310000      86.954999990000      50.000000000000
      2884    2      145.688566950000      85.249999990000      50.000000000000
      2885    1      142.735420310000      90.364999990000      50.000000000000
      2886    2      145.688566950000      88.659999980000      50.000000000000
      2887    2      142.735420310000      93.774999990000      50.000000000000
      2888    2      145.688566950000      92.069999990000      50.000000000000
      2889    2      148.641713570000      83.544999990000      50.000000000000
      2890    2      151.594860200000      81.839999990000      50.000000000000
      2891    2      148.641713570000      86.954999990000      50.000000000000
      2892    2      151.594860200000      85.249999990000      50.000000000000
      2893    2      148.641713570000      90.364999990000      50.000000000000
      2894    2      151.594860200000      88.659999980000      50.000000000000
      2895    2      148.641713570000      93.774999990000      50.000000000000
      2896    2      151.594860200000      92.069999990000      50.000000000000
      2897    3      141.751038110000      81.839999990000      50.000000000000
      2898    3      144.704184730000      83.544999990000      50.000000000000
      2899    3      141.751038110000      85.249999990000      50.000000000000
      2900    3      144.704184730000      86.954999990000      50.000000000000
      2901    3      141.751038110000      88.659999980000      50.000000000000
      2902    3      144.704184730000      90.364999990000      50.000000000000
      2903    3      141.751038110000      92.069999990000      50.000000000000
      2904    3      144.704184730000      93.774999990000      50.000000000000
      2905    3      147.657331360000      81.839999990000      50.000000000000
      2906    3      150.610477990000      83.544999990000      50.000000000000
      2907    3      147.657331360000      85.249999990000      50.000000000000
      2908    3      150.610477990000      86.954999990000      50.000000000000
      2909    3      147.657331360000      88.659999980000      50.000000000000
      2910    3      150.610477990000      90.364999990000      50.000000000000
      2911    3      147.657331360000      92.069999990000      50.000000000000
      2912    3      150.610477990000      93.774999990000      50.000000000000
      2913    2        0.984382200000      97.184999980000      50.000000000000
      2914    2        3.937528840000      95.479999990000      50.000000000000
      2915    2        0.984382200000     100.594999990000      50.000000000000
      2916    2        3.937528840000      98.889999990000      50.000000000000
      2917    2        0.984382200000     104.004999990000      50.000000000000
      2918    2        3.937528840000     102.299999980000      50.000000000000
      2919    2        0.984382200000     107.414999990000      50.000000000000
      2920    1        3.937528840000     105.709999980000      50.000000000000
      2921    2        6.890675460000      97.184999980000      50.000000000000
      2922    2        9.843822090000      95.479999990000      50.000000000000
      2923    2        6.890675460000     100.594999990000      50.000000000000
      2924    2        9.843822090000      98.889999990000      50.000000000000
      2925    2        6.890675460000     104.004999990000      50.000000000000
      2926    2        9.843822090000     102.299999980000      50.000000000000
      2927    2        6.890675460000     107.414999990000      50.000000000000
      2928    2        9.843822090000     105.709999980000      50.000000000000
      2929    3        0.000000000000      95.479999990000      50.000000000000
      2930    3        2.953146620000      97.184999980000      50.000000000000
      2931    3        0.000000000000      98.889999990000      50.000000000000
      2932    3        2.953146620000     100.594999990000      50.000000000000
      2933    3        0.000000000000     102.299999980000      50.000000000000
      2934    3        2.953146620000     104.004999990000      50.000000000000
      2935    3        0.000000000000     105.709999980000      50.000000000000
      2936    3        2.953146620000     107.414999990000      50.000000000000
      2937    3        5.906293250000      95.479999990000      50.000000000000
      2938    3        8.859439880000      97.184999980000      50.000000000000
      2939    3        5.906293250000      98.889999990000      50.000000000000
      2940    3        8.859439880000     100.594999990000      50.000000000000
      2941    3        5.906293250000     102.299999980000      50.000000000000
      2942    3        8.859439880000     104.004999990000      50.000000000000
      2943    3        5.906293250000     105.709999980000      50.000000000000
      2944    3        8.859439880000     107.414999990000      50.000000000000
      2945    2       12.796968710000      97.184999980000      50.000000000000
      2946    2       15.750115350000      95.479999990000      50.000000000000
      2947    2       12.796968710000     100.594999990000      50.000000000000
      2948    2       15.750115350000      98.889999990000      50.000000000000
      2949    2       12.796968710000     104.004999990000      50.000000000000
      2950    2       15.750115350000     102.299999980000      50.000000000000
      2951    1       12.796968710000     107.414999990000      50.000000000000
      2952    1       15.750115350000     105.709999980000      50.000000000000
      2953    2       18.703261970000      97.184999980000      50.000000000000
      2954    1       21.656408600000      95.479999990000      50.000000000000
      2955    2       18.703261970000     100.594999990000      50.000000000000
      2956    2       21.656408600000      98.889999990000      50.000000000000
      2957    2       18.703261970000     104.004999990000      50.000000000000
      2958    2       21.656408600000     102.299999980000      50.000000000000
      2959    2       18.703261970000     107.414999990000      50.000000000000
      2960    2       21.656408600000     105.709999980000      50.000000000000
      2961    3       11.812586510000      95.479999990000      50.000000000000
      2962    3       14.765733130000      97.184999980000      50.000000000000
      2963    3       11.812586510000      98.889999990000      50.000000000000
      2964    3       14.765733130000     100.594999990000      50.000000000000
      2965    3       11.812586510000     102.299999980000      50.000000000000
      2966    3       14.765733130000     104.004999990000      50.000000000000
      2967    3       11.812586510000     105.709999980000      50.000000000000
      2968    3       14.765733130000     107.414999990000      50.000000000000
      2969    3       17.718879760000      95.479999990000      50.000000000000
      2970    3       20.672026390000      97.184999980000      50.000000000000
      2971    3       17.718879760000      98.889999990000      50.000000000000
      2972    3       20.672026390000     100.594999990000      50.000000000000
      2973    3       17.718879760000     102.299999980000      50.000000000000
      2974    3       20.672026390000     104.004999990000      50.000000000000
      2975    3       17.718879760000     105.709999980000      50.000000000000
      2976    3       20.672026390000     107.414999990000      50.000000000000
      2977    2       24.609555220000      97.184999980000      50.000000000000
      2978    2       27.562701850000      95.479999990000      50.000000000000
      2979    2       24.609555220000     100.594999990000      50.000000000000
      2980    2       27.562701850000      98.889999990000      50.000000000000
      2981    2       24.609555220000     104.004999990000      50.000000000000
      2982    2       27.562701850000     102.299999980000      50.000000000000
      2983    2       24.609555220000     107.414999990000      50.000000000000
      2984    2       27.562701850000     105.709999980000      50.000000000000
      2985    2       30.515848480000      97.184999980000      50.000000000000
      2986    2       33.468995110000      95.479999990000      50.000000000000
      2987    2       30.515848480000     100.594999990000      50.000000000000
      2988    1       33.468995110000      98.889999990000      50.000000000000
      2989    2       30.515848480000     104.004999990000      50.000000000000
      2990    2       33.468995110000     102.299999980000      50.000000000000
      2991    2       30.515848480000     107.414999990000      50.000000000000
      2992    2       33.468995110000     105.709999980000      50.000000000000
      2993    3       23.625173020000      95.479999990000      50.000000000000
      2994    3       26.578319640000      97.184999980000      50.000000000000
      2995    3       23.625173020000      98.889999990000      50.000000000000
      2996    3       26.578319640000     100.594999990000      50.000000000000
      2997    3       23.625173020000     102.299999980000      50.000000000000
      2998    3       26.578319640000     104.004999990000      50.000000000000
      2999    3       23.625173020000     105.709999980000      50.000000000000
      3000    3       26.578319640000     107.414999990000      50.000000000000
      3001    3       29.531466270000      95.479999990000      50.000000000000
      3002    3       32.484612890000      97.184999980000      50.000000000000
      3003    3       29.531466270000      98.889999990000      50.000000000000
      3004    3       32.484612890000     100.594999990000      50.000000000000
      3005    3       29.531466270000     102.299999980000      50.000000000000
      3006    3       32.484612890000     104.004999990000      50.000000000000
      3007    3       29.531466270000     105.709999980000      50.000000000000
      3008    3       32.484612890000     107.414999990000      50.000000000000
      3009    2       36.422141730000      97.184999980000      50.000000000000
      3010    2       39.375288360000      95.479999990000      50.000000000000
      3011    2       36.422141730000     100.594999990000      50.000000000000
      3012    2       39.375288360000      98.889999990000      50.000000000000
      3013    2       36.422141730000     104.004999990000      50.000000000000
      3014    2       39.375288360000     102.299999980000      50.000000000000
      3015    1       36.422141730000     107.414999990000      50.000000000000
      3016    2       39.375288360000     105.709999980000      50.000000000000
      3017    2       42.328434990000      97.184999980000      50.000000000000
      3018    2       45.281581620000      95.479999990000      50.000000000000
      3019    2       42.328434990000     100.594999990000      50.000000000000
      3020    2       45.281581620000      98.889999990000      50.000000000000
      3021    2       42.328434990000     104.004999990000      50.000000000000
      3022    2       45.281581620000     102.299999980000      50.000000000000
      3023    2       42.328434990000     107.414999990000      50.000000000000
      3024    1       45.281581620000     105.709999980000      50.000000000000
      3025    3       35.437759530000      95.479999990000      50.000000000000
      3026    3       38.390906150000      97.184999980000      50.000000000000
      3027    3       35.437759530000      98.889999990000      50.000000000000
      3028    3       38.390906150000     100.594999990000      50.000000000000
      3029    3       35.437759530000     102.299999980000      50.000000000000
      3030    3       38.390906150000     104.004999990000      50.000000000000
      3031    3       35.437759530000     105.709999980000      50.000000000000
      3032    3       38.390906150000     107.414999990000      50.000000000000
      3033    3       41.344052780000      95.479999990000      50.000000000000
      3034    3       44.297199400000      97.184999980000      50.000000000000
      3035    3       41.344052780000      98.889999990000      50.000000000000
      3036    3       44.297199400000     100.594999990000      50.000000000000
      3037    3       41.344052780000     102.299999980000      50.000000000000
      3038    3       44.297199400000     104.004999990000      50.000000000000
      3039    3       41.344052780000     105.709999980000      50.000000000000
      3040    3       44.297199400000     107.414999990000      50.000000000000
      3041    1       48.234728240000      97.184999980000      50.000000000000
      3042    2       51.187874870000      95.479999990000      50.000000000000
      3043    2       48.234728240000     100.594999990000      50.000000000000
      3044    2       51.187874870000      98.889999990000      50.000000000000
      3045    1       48.234728240000     104.004999990000      50.000000000000
      3046    2       51.187874870000     102.299999980000      50.000000000000
      3047    2       48.234728240000     107.414999990000      50.000000000000
      3048    2       51.187874870000     105.709999980000      50.000000000000
      3049    2       54.141021490000      97.184999980000      50.000000000000
      3050    2       57.094168130000      95.479999990000      50.000000000000
      3051    2       54.141021490000     100.594999990000      50.000000000000
      3052    2       57.094168130000      98.889999990000      50.000000000000
      3053    2       54.141021490000     104.004999990000      50.000000000000
      3054    1       57.094168130000     102.299999980000      50.000000000000
      3055    1       54.141021490000     107.414999990000      50.000000000000
      3056    2       57.094168130000     105.709999980000      50.000000000000
      3057    3       47.250346040000      95.479999990000      50.000000000000
      3058    3       50.203492660000      97.184999980000      50.000000000000
      3059    3       47.250346040000      98.889999990000      50.000000000000
      3060    3       50.203492660000     100.594999990000      50.000000000000
      3061    3       47.250346040000     102.299999980000      50.000000000000
      3062    3       50.203492660000     104.004999990000      50.000000000000
      3063    3       47.250346040000     105.709999980000      50.000000000000
      3064    3       50.203492660000     107.414999990000      50.000000000000
      3065    3       53.156639290000      95.479999990000      50.000000000000
      3066    3       56.109785910000      97.184999980000      50.000000000000
      3067    3       53.156639290000      98.889999990000      50.000000000000
      3068    3       56.109785910000     100.594999990000      50.000000000000
      3069    3       53.156639290000     102.299999980000      50.000000000000
      3070    3       56.109785910000     104.004999990000      50.000000000000
      3071    3       53.156639290000     105.709999980000      50.000000000000
      3072    3       56.109785910000     107.414999990000      50.000000000000
      3073    2       60.047314750000      97.184999980000      50.000000000000
      3074    2       63.000461380000      95.479999990000      50.000000000000
      3075    2       60.047314750000     100.594999990000      50.000000000000
      3076    2       63.000461380000      98.889999990000      50.000000000000
      3077    2       60.047314750000     104.004999990000      50.000000000000
      3078    2       63.000461380000     102.299999980000      50.000000000000
      3079    2       60.047314750000     107.414999990000      50.000000000000
      3080    2       63.000461380000     105.709999980000      50.000000000000
      3081    2       65.953608000000      97.184999980000      50.000000000000
      3082    2       68.906754640000      95.479999990000      50.000000000000
      3083    2       65.953608000000     100.594999990000      50.000000000000
      3084    1       68.906754640000      98.889999990000      50.000000000000
      3085    2       65.953608000000     104.004999990000      50.000000000000
      3086    2       68.906754640000     102.299999980000      50.000000000000
      3087    2       65.953608000000     107.414999990000      50.000000000000
      3088    2       68.906754640000     105.709999980000      50.000000000000
      3089    3       59.062932550000      95.479999990000      50.000000000000
      3090    3       62.016079170000      97.184999980000      50.000000000000
      3091    3       59.062932550000      98.889999990000      50.000000000000
      3092    3       62.016079170000     100.594999990000      50.000000000000
      3093    3       59.062932550000     102.299999980000      50.000000000000
      3094    3       62.016079170000     104.004999990000      50.000000000000
      3095    3       59.062932550000     105.709999980000      50.000000000000
      3096    3       62.016079170000     107.414999990000      50.000000000000
      3097    3       64.969225800000      95.479999990000      50.000000000000
      3098    3       67.922372420000      97.184999980000      50.000000000000
      3099    3       64.969225800000      98.889999990000      50.000000000000
      3100    3       67.922372420000     100.594999990000      50.000000000000
      3101    3       64.969225800000     102.299999980000      50.000000000000
      3102    3       67.922372420000     104.004999990000      50.000000000000
      3103    3       64.969225800000     105.709999980000      50.000000000000
      3104    3       67.922372420000     107.414999990000      50.000000000000
      3105    2       71.859901260000      97.184999980000      50.000000000000
      3106    2       74.813047890000      95.479999990000      50.000000000000
      3107    2       71.859901260000     100.594999990000      50.000000000000
      3108    2       74.813047890000      98.889999990000      50.000000000000
      3109    2       71.859901260000     104.004999990000      50.000000000000
      3110    2       74.813047890000     102.299999980000      50.000000000000
      3111    2       71.859901260000     107.414999990000      50.000000000000
      3112    2       74.813047890000     105.709999980000      50.000000000000
      3113    2       77.766194510000      97.184999980000      50.000000000000
      3114    2       80.719341150000      95.479999990000      50.000000000000
      3115    2       77.766194510000     100.594999990000      50.000000000000
      3116    2       80.719341150000      98.889999990000      50.000000000000
      3117    1       77.766194510000     104.004999990000      50.000000000000
      3118    2       80.719341150000     102.299999980000      50.000000000000
      3119    2       77.766194510000     107.414999990000      50.000000000000
      3120    2       80.719341150000     105.709999980000      50.000000000000
      3121    3       70.875519050000      95.479999990000      50.000000000000
      3122    3       73.828665680000      97.184999980000      50.000000000000
      3123    3       70.875519050000      98.889999990000      50.000000000000
      3124    3       73.828665680000     100.594999990000      50.000000000000
      3125    3       70.875519050000     102.299999980000      50.000000000000
      3126    3       73.828665680000     104.004999990000      50.000000000000
      3127    3       70.875519050000     105.709999980000      50.000000000000
      3128    3       73.828665680000     107.414999990000      50.000000000000
      3129    3       76.781812310000      95.479999990000      50.000000000000
      3130    3       79.734958930000      97.184999980000      50.000000000000
      3131    3       76.781812310000      98.889999990000      50.000000000000
      3132    3       79.734958930000     100.594999990000      50.000000000000
      3133    3       76.781812310000     102.299999980000      50.000000000000
      3134    3       79.734958930000     104.004999990000      50.000000000000
      3135    3       76.781812310000     105.709999980000      50.000000000000
      3136    3       79.734958930000     107.414999990000      50.000000000000
      3137    2       83.672487770000      97.184999980000      50.000000000000
      3138    2       86.625634400000      95.479999990000      50.000000000000
      3139    2       83.672487770000     100.594999990000      50.000000000000
      3140    2       86.625634400000      98.889999990000      50.000000000000
      3141    2       83.672487770000     104.004999990000      50.000000000000
      3142    2       86.625634400000     102.299999980000      50.000000000000
      3143    2       83.672487770000     107.414999990000      50.000000000000
      3144    2       86.625634400000     105.709999980000      50.000000000000
      3145    2       89.578781020000      97.184999980000      50.000000000000
      3146    2       92.531927650000      95.479999990000      50.000000000000
      3147    1       89.578781020000     100.594999990000      50.000000000000
      3148    2       92.531927650000      98.889999990000      50.000000000000
      3149    2       89.578781020000     104.004999990000      50.000000000000
      3150    2       92.531927650000     102.299999980000      50.000000000000
      3151    2       89.578781020000     107.414999990000      50.000000000000
      3152    2       92.531927650000     105.709999980000      50.000000000000
      3153    3       82.688105560000      95.479999990000      50.000000000000
      3154    3       85.641252190000      97.184999980000      50.000000000000
      3155    3       82.688105560000      98.889999990000      50.000000000000
      3156    3       85.641252190000     100.594999990000      50.000000000000
      3157    3       82.688105560000     102.299999980000      50.000000000000
      3158    3       85.641252190000     104.004999990000      50.000000000000
      3159    3       82.688105560000     105.709999980000      50.000000000000
      3160    3       85.641252190000     107.414999990000      50.000000000000
      3161    3       88.594398820000      95.479999990000      50.000000000000
      3162    3       91.547545440000      97.184999980000      50.000000000000
      3163    3       88.594398820000      98.889999990000      50.000000000000
      3164    3       91.547545440000     100.594999990000      50.000000000000
      3165    3       88.594398820000     102.299999980000      50.000000000000
      3166    3       91.547545440000     104.004999990000      50.000000000000
      3167    3       88.594398820000     105.709999980000      50.000000000000
      3168    3       91.547545440000     107.414999990000      50.000000000000
      3169    2       95.485074280000      97.184999980000      50.000000000000
      3170    2       98.438220910000      95.479999990000      50.000000000000
      3171    2       95.485074280000     100.594999990000      50.000000000000
      3172    2       98.438220910000      98.889999990000      50.000000000000
      3173    2       95.485074280000     104.004999990000      50.000000000000
      3174    2       98.438220910000     102.299999980000      50.000000000000
      3175    2       95.485074280000     107.414999990000      50.000000000000
      3176    2       98.438220910000     105.709999980000      50.000000000000
      3177    2      101.391367530000      97.184999980000      50.000000000000
      3178    1      104.344514160000      95.479999990000      50.000000000000
      3179    2      101.391367530000     100.594999990000      50.000000000000
      3180    2      104.344514160000      98.889999990000      50.000000000000
      3181    2      101.391367530000     104.004999990000      50.000000000000
      3182    2      104.344514160000     102.299999980000      50.000000000000
      3183    2      101.391367530000     107.414999990000      50.000000000000
      3184    2      104.344514160000     105.709999980000      50.000000000000
      3185    3       94.500692070000      95.479999990000      50.000000000000
      3186    3       97.453838690000      97.184999980000      50.000000000000
      3187    3       94.500692070000      98.889999990000      50.000000000000
      3188    3       97.453838690000     100.594999990000      50.000000000000
      3189    3       94.500692070000     102.299999980000      50.000000000000
      3190    3       97.453838690000     104.004999990000      50.000000000000
      3191    3       94.500692070000     105.709999980000      50.000000000000
      3192    3       97.453838690000     107.414999990000      50.000000000000
      3193    3      100.406985330000      95.479999990000      50.000000000000
      3194    3      103.360131950000      97.184999980000      50.000000000000
      3195    3      100.406985330000      98.889999990000      50.000000000000
      3196    3      103.360131950000     100.594999990000      50.000000000000
      3197    3      100.406985330000     102.299999980000      50.000000000000
      3198    3      103.360131950000     104.004999990000      50.000000000000
      3199    3      100.406985330000     105.709999980000      50.000000000000
      3200    3      103.360131950000     107.414999990000      50.000000000000
      3201    2      107.297660790000      97.184999980000      50.000000000000
      3202    2      110.250807420000      95.479999990000      50.000000000000
      3203    2      107.297660790000     100.594999990000      50.000000000000
      3204    2      110.250807420000      98.889999990000      50.000000000000
      3205    2      107.297660790000     104.004999990000      50.000000000000
      3206    1      110.250807420000     102.299999980000      50.000000000000
      3207    1      107.297660790000     107.414999990000      50.000000000000
      3208    2      110.250807420000     105.709999980000      50.000000000000
      3209    2      113.203954040000      97.184999980000      50.000000000000
      3210    2      116.157100670000      95.479999990000      50.000000000000
      3211    2      113.203954040000     100.594999990000      50.000000000000
      3212    2      116.157100670000      98.889999990000      50.000000000000
      3213    2      113.203954040000     104.004999990000      50.000000000000
      3214    2      116.157100670000     102.299999980000      50.000000000000
      3215    2      113.203954040000     107.414999990000      50.000000000000
      3216    2      116.157100670000     105.709999980000      50.000000000000
      3217    3      106.313278580000      95.479999990000      50.000000000000
      3218    3      109.266425200000      97.184999980000      50.000000000000
      3219    3      106.313278580000      98.889999990000      50.000000000000
      3220    3      109.266425200000     100.594999990000      50.000000000000
      3221    3      106.313278580000     102.299999980000      50.000000000000
      3222    3      109.266425200000     104.004999990000      50.000000000000
      3223    3      106.313278580000     105.709999980000      50.000000000000
      3224    3      109.266425200000     107.414999990000      50.000000000000
      3225    3      112.219571840000      95.479999990000      50.000000000000
      3226    3      115.172718460000      97.184999980000      50.000000000000
      3227    3      112.219571840000      98.889999990000      50.000000000000
      3228    3      115.172718460000     100.594999990000      50.000000000000
      3229    3      112.219571840000     102.299999980000      50.000000000000
      3230    3      115.172718460000     104.004999990000      50.000000000000
      3231    3      112.219571840000     105.709999980000      50.000000000000
      3232    3      115.172718460000     107.414999990000      50.000000000000
      3233    1      119.110247290000      97.184999980000      50.000000000000
      3234    2      122.063393930000      95.479999990000      50.000000000000
      3235    1      119.110247290000     100.594999990000      50.000000000000
      3236    2      122.063393930000      98.889999990000      50.000000000000
      3237    2      119.110247290000     104.004999990000      50.000000000000
      3238    2      122.063393930000     102.299999980000      50.000000000000
      3239    2      119.110247290000     107.414999990000      50.000000000000
      3240    2      122.063393930000     105.709999980000      50.000000000000
      3241    2      125.016540550000      97.184999980000      50.000000000000
      3242    2      127.969687180000      95.479999990000      50.000000000000
      3243    2      125.016540550000     100.594999990000      50.000000000000
      3244    2      127.969687180000      98.889999990000      50.000000000000
      3245    2      125.016540550000     104.004999990000      50.000000000000
      3246    2      127.969687180000     102.299999980000      50.000000000000
      3247    2      125.016540550000     107.414999990000      50.000000000000
      3248    1      127.969687180000     105.709999980000      50.000000000000
      3249    3      118.125865090000      95.479999990000      50.000000000000
      3250    3      121.079011710000      97.184999980000      50.000000000000
      3251    3      118.125865090000      98.889999990000      50.000000000000
      3252    3      121.079011710000     100.594999990000      50.000000000000
      3253    3      118.125865090000     102.299999980000      50.000000000000
      3254    3      121.079011710000     104.004999990000      50.000000000000
      3255    3      118.125865090000     105.709999980000      50.000000000000
      3256    3      121.079011710000     107.414999990000      50.000000000000
      3257    3      124.032158350000      95.479999990000      50.000000000000
      3258    3      126.985304970000      97.184999980000      50.000000000000
      3259    3      124.032158350000      98.889999990000      50.000000000000
      3260    3      126.985304970000     100.594999990000      50.000000000000
      3261    3      124.032158350000     102.299999980000      50.000000000000
      3262    3      126.985304970000     104.004999990000      50.000000000000
      3263    3      124.032158350000     105.709999980000      50.000000000000
      3264    3      126.985304970000     107.414999990000      50.000000000000
      3265    2      130.922833800000      97.184999980000      50.000000000000
      3266    2      133.875980440000      95.479999990000      50.000000000000
      3267    2      130.922833800000     100.594999990000      50.000000000000
      3268    2      133.875980440000      98.889999990000      50.000000000000
      3269    2      130.922833800000     104.004999990000      50.000000000000
      3270    2      133.875980440000     102.299999980000      50.000000000000
      3271    2      130.922833800000     107.414999990000      50.000000000000
      3272    2      133.875980440000     105.709999980000      50.000000000000
      3273    2      136.829127060000      97.184999980000      50.000000000000
      3274    2      139.782273690000      95.479999990000      50.000000000000
      3275    2      136.829127060000     100.594999990000      50.000000000000
      3276    2      139.782273690000      98.889999990000      50.000000000000
      3277    2      136.829127060000     104.004999990000      50.000000000000
      3278    2      139.782273690000     102.299999980000      50.000000000000
      3279    2      136.829127060000     107.414999990000      50.000000000000
      3280    2      139.782273690000     105.709999980000      50.000000000000
      3281    3      129.938451600000      95.479999990000      50.000000000000
      3282    3      132.891598220000      97.184999980000      50.000000000000
      3283    3      129.938451600000      98.889999990000      50.000000000000
      3284    3      132.891598220000     100.594999990000      50.000000000000
      3285    3      129.938451600000     102.299999980000      50.000000000000
      3286    3      132.891598220000     104.004999990000      50.000000000000
      3287    3      129.938451600000     105.709999980000      50.000000000000
      3288    3      132.891598220000     107.414999990000      50.000000000000
      3289    3      135.844744850000      95.479999990000      50.000000000000
      3290    3      138.797891480000      97.184999980000      50.000000000000
      3291    3      135.844744850000      98.889999990000      50.000000000000
      3292    3      138.797891480000     100.594999990000      50.000000000000
      3293    3      135.844744850000     102.299999980000      50.000000000000
      3294    3      138.797891480000     104.004999990000      50.000000000000
      3295    3      135.844744850000     105.709999980000      50.000000000000
      3296    3      138.797891480000     107.414999990000      50.000000000000
      3297    2      142.735420310000      97.184999980000      50.000000000000
      3298    2      145.688566950000      95.479999990000      50.000000000000
      3299    2      142.735420310000     100.594999990000      50.000000000000
      3300    2      145.688566950000      98.889999990000      50.000000000000
      3301    2      142.735420310000     104.004999990000      50.000000000000
      3302    2      145.688566950000     102.299999980000      50.000000000000
      3303    2      142.735420310000     107.414999990000      50.000000000000
      3304    2      145.688566950000     105.709999980000      50.000000000000
      3305    2      148.641713570000      97.184999980000      50.000000000000
      3306    2      151.594860200000      95.479999990000      50.000000000000
      3307    2      148.641713570000     100.594999990000      50.000000000000
      3308    2      151.594860200000      98.889999990000      50.000000000000
      3309    2      148.641713570000     104.004999990000      50.000000000000
      3310    2      151.594860200000     102.299999980000      50.000000000000
      3311    2      148.641713570000     107.414999990000      50.000000000000
      3312    2      151.594860200000     105.709999980000      50.000000000000
      3313    3      141.751038110000      95.479999990000      50.000000000000
      3314    3      144.704184730000      97.184999980000      50.000000000000
      3315    3      141.751038110000      98.889999990000      50.000000000000
      3316    3      144.704184730000     100.594999990000      50.000000000000
      3317    3      141.751038110000     102.299999980000      50.000000000000
      3318    3      144.704184730000     104.004999990000      50.000000000000
      3319    3      141.751038110000     105.709999980000      50.000000000000
      3320    3      144.704184730000     107.414999990000      50.000000000000
      3321    3      147.657331360000      95.479999990000      50.000000000000
      3322    3      150.610477990000      97.184999980000      50.000000000000
      3323    3      147.657331360000      98.889999990000      50.000000000000
      3324    3      150.610477990000     100.594999990000      50.000000000000
      3325    3      147.657331360000     102.299999980000      50.000000000000
      3326    3      150.610477990000     104.004999990000      50.000000000000
      3327    3      147.657331360000     105.709999980000      50.000000000000
      3328    3      150.610477990000     107.414999990000      50.000000000000
      3329    1        0.984382200000     110.824999980000      50.000000000000
      3330    2        3.937528840000     109.119999990000      50.000000000000
      3331    2        0.984382200000     114.234999980000      50.000000000000
      3332    2        3.937528840000     112.529999990000      50.000000000000
      3333    2        0.984382200000     117.644999990000      50.000000000000
      3334    2        3.937528840000     115.939999980000      50.000000000000
      3335    2        0.984382200000     121.054999990000      50.000000000000
      3336    2        3.937528840000     119.349999980000      50.000000000000
      3337    2        6.890675460000     110.824999980000      50.000000000000
      3338    2        9.843822090000     109.119999990000      50.000000000000
      3339    2        6.890675460000     114.234999980000      50.000000000000
      3340    2        9.843822090000     112.529999990000      50.000000000000
      3341    2        6.890675460000     117.644999990000      50.000000000000
      3342    2        9.843822090000     115.939999980000      50.000000000000
      3343    2        6.890675460000     121.054999990000      50.000000000000
      3344    2        9.843822090000     119.349999980000      50.000000000000
      3345    3        0.000000000000     109.119999990000      50.000000000000
      3346    3        2.953146620000     110.824999980000      50.000000000000
      3347    3        0.000000000000     112.529999990000      50.000000000000
      3348    3        2.953146620000     114.234999980000      50.000000000000
      3349    3        0.000000000000     115.939999980000      50.000000000000
      3350    3        2.953146620000     117.644999990000      50.000000000000
      3351    3        0.000000000000     119.349999980000      50.000000000000
      3352    3        2.953146620000     121.054999990000      50.000000000000
      3353    3        5.906293250000     109.119999990000      50.000000000000
      3354    3        8.859439880000     110.824999980000      50.000000000000
      3355    3        5.906293250000     112.529999990000      50.000000000000
      3356    3        8.859439880000     114.234999980000      50.000000000000
      3357    3        5.906293250000     115.939999980000      50.000000000000
      3358    3        8.859439880000     117.644999990000      50.000000000000
      3359    3        5.906293250000     119.349999980000      50.000000000000
      3360    3        8.859439880000     121.054999990000      50.000000000000
      3361    1       12.796968710000     110.824999980000      50.000000000000
      3362    2       15.750115350000     109.119999990000      50.000000000000
      3363    2       12.796968710000     114.234999980000      50.000000000000
      3364    2       15.750115350000     112.529999990000      50.000000000000
      3365    2       12.796968710000     117.644999990000      50.000000000000
      3366    2       15.750115350000     115.939999980000      50.000000000000
      3367    2       12.796968710000     121.054999990000      50.000000000000
      3368    2       15.750115350000     119.349999980000      50.000000000000
      3369    2       18.703261970000     110.824999980000      50.000000000000
      3370    2       21.656408600000     109.119999990000      50.000000000000
      3371    1       18.703261970000     114.234999980000      50.000000000000
      3372    1       21.656408600000     112.529999990000      50.000000000000
      3373    2       18.703261970000     117.644999990000      50.000000000000
      3374    2       21.656408600000     115.939999980000      50.000000000000
      3375    2       18.703261970000     121.054999990000      50.000000000000
      3376    2       21.656408600000     119.349999980000      50.000000000000
      3377    3       11.812586510000     109.119999990000      50.000000000000
      3378    3       14.765733130000     110.824999980000      50.000000000000
      3379    3       11.812586510000     112.529999990000      50.000000000000
      3380    3       14.765733130000     114.234999980000      50.000000000000
      3381    3       11.812586510000     115.939999980000      50.000000000000
      3382    3       14.765733130000     117.644999990000      50.000000000000
      3383    3       11.812586510000     119.349999980000      50.000000000000
      3384    3       14.765733130000     121.054999990000      50.000000000000
      3385    3       17.718879760000     109.119999990000      50.000000000000
      3386    3       20.672026390000     110.824999980000      50.000000000000
      3387    3       17.718879760000     112.529999990000      50.000000000000
      3388    3       20.672026390000     114.234999980000      50.000000000000
      3389    3       17.718879760000     115.939999980000      50.000000000000
      3390    3       20.672026390000     117.644999990000      50.000000000000
      3391    3       17.718879760000     119.349999980000      50.000000000000
      3392    3       20.672026390000     121.054999990000      50.000000000000
      3393    2       24.609555220000     110.824999980000      50.000000000000
      3394    2       27.562701850000     109.119999990000      50.000000000000
      3395    2       24.609555220000     114.234999980000      50.000000000000
      3396    2       27.562701850000     112.529999990000      50.000000000000
      3397    2       24.609555220000     117.644999990000      50.000000000000
      3398    2       27.562701850000     115.939999980000      50.000000000000
      3399    2       24.609555220000     121.054999990000      50.000000000000
      3400    2       27.562701850000     119.349999980000      50.000000000000
      3401    2       30.515848480000     110.824999980000      50.000000000000
      3402    2       33.468995110000     109.119999990000      50.000000000000
      3403    2       30.515848480000     114.234999980000      50.000000000000
      3404    2       33.468995110000     112.529999990000      50.000000000000
      3405    2       30.515848480000     117.644999990000      50.000000000000
      3406    2       33.468995110000     115.939999980000      50.000000000000
      3407    2       30.515848480000     121.054999990000      50.000000000000
      3408    2       33.468995110000     119.349999980000      50.000000000000
      3409    3       23.625173020000     109.119999990000      50.000000000000
      3410    3       26.578319640000     110.824999980000      50.000000000000
      3411    3       23.625173020000     112.529999990000      50.000000000000
      3412    3       26.578319640000     114.234999980000      50.000000000000
      3413    3       23.625173020000     115.939999980000      50.000000000000
      3414    3       26.578319640000     117.644999990000      50.000000000000
      3415    3       23.625173020000     119.349999980000      50.000000000000
      3416    3       26.578319640000     121.054999990000      50.000000000000
      3417    3       29.531466270000     109.119999990000      50.000000000000
      3418    3       32.484612890000     110.824999980000      50.000000000000
      3419    3       29.531466270000     112.529999990000      50.000000000000
      3420    3       32.484612890000     114.234999980000      50.000000000000
      3421    3       29.531466270000     115.939999980000      50.000000000000
      3422    3       32.484612890000     117.644999990000      50.000000000000
      3423    3       29.531466270000     119.349999980000      50.000000000000
      3424    3       32.484612890000     121.054999990000      50.000000000000
      3425    2       36.422141730000     110.824999980000      50.000000000000
      3426    2       39.375288360000     109.119999990000      50.000000000000
      3427    2       36.422141730000     114.234999980000      50.000000000000
      3428    2       39.375288360000     112.529999990000      50.000000000000
      3429    2       36.422141730000     117.644999990000      50.000000000000
      3430    2       39.375288360000     115.939999980000      50.000000000000
      3431    2       36.422141730000     121.054999990000      50.000000000000
      3432    2       39.375288360000     119.349999980000      50.000000000000
      3433    2       42.328434990000     110.824999980000      50.000000000000
      3434    2       45.281581620000     109.119999990000      50.000000000000
      3435    2       42.328434990000     114.234999980000      50.000000000000
      3436    2       45.281581620000     112.529999990000      50.000000000000
      3437    2       42.328434990000     117.644999990000      50.000000000000
      3438    1       45.281581620000     115.939999980000      50.000000000000
      3439    2       42.328434990000     121.054999990000      50.000000000000
      3440    2       45.281581620000     119.349999980000      50.000000000000
      3441    3       35.437759530000     109.119999990000      50.000000000000
      3442    3       38.390906150000     110.824999980000      50.000000000000
      3443    3       35.437759530000     112.529999990000      50.000000000000
      3444    3       38.390906150000     114.234999980000      50.000000000000
      3445    3       35.437759530000     115.939999980000      50.000000000000
      3446    3       38.390906150000     117.644999990000      50.000000000000
      3447    3       35.437759530000     119.349999980000      50.000000000000
      3448    3       38.390906150000     121.054999990000      50.000000000000
      3449    3       41.344052780000     109.119999990000      50.000000000000
      3450    3       44.297199400000     110.824999980000      50.000000000000
      3451    3       41.344052780000     112.529999990000      50.000000000000
      3452    3       44.297199400000     114.234999980000      50.000000000000
      3453    3       41.344052780000     115.939999980000      50.000000000000
      3454    3       44.297199400000     117.644999990000      50.000000000000
      3455    3       41.344052780000     119.349999980000      50.000000000000
      3456    3       44.297199400000     121.054999990000      50.000000000000
      3457    2       48.234728240000     110.824999980000      50.000000000000
      3458    2       51.187874870000     109.119999990000      50.000000000000
      3459    1       48.234728240000     114.234999980000      50.000000000000
      3460    2       51.187874870000     112.529999990000      50.000000000000
      3461    2       48.234728240000     117.644999990000      50.000000000000
      3462    2       51.187874870000     115.939999980000      50.000000000000
      3463    2       48.234728240000     121.054999990000      50.000000000000
      3464    2       51.187874870000     119.349999980000      50.000000000000
      3465    2       54.141021490000     110.824999980000      50.000000000000
      3466    2       57.094168130000     109.119999990000      50.000000000000
      3467    2       54.141021490000     114.234999980000      50.000000000000
      3468    2       57.094168130000     112.529999990000      50.000000000000
      3469    2       54.141021490000     117.644999990000      50.000000000000
      3470    2       57.094168130000     115.939999980000      50.000000000000
      3471    2       54.141021490000     121.054999990000      50.000000000000
      3472    2       57.094168130000     119.349999980000      50.000000000000
      3473    3       47.250346040000     109.119999990000      50.000000000000
      3474    3       50.203492660000     110.824999980000      50.000000000000
      3475    3       47.250346040000     112.529999990000      50.000000000000
      3476    3       50.203492660000     114.234999980000      50.000000000000
      3477    3       47.250346040000     115.939999980000      50.000000000000
      3478    3       50.203492660000     117.644999990000      50.000000000000
      3479    3       47.250346040000     119.349999980000      50.000000000000
      3480    3       50.203492660000     121.054999990000      50.000000000000
      3481    3       53.156639290000     109.119999990000      50.000000000000
      3482    3       56.109785910000     110.824999980000      50.000000000000
      3483    3       53.156639290000     112.529999990000      50.000000000000
      3484    3       56.109785910000     114.234999980000      50.000000000000
      3485    3       53.156639290000     115.939999980000      50.000000000000
      3486    3       56.109785910000     117.644999990000      50.000000000000
      3487    3       53.156639290000     119.349999980000      50.000000000000
      3488    3       56.109785910000     121.054999990000      50.000000000000
      3489    2       60.047314750000     110.824999980000      50.000000000000
      3490    2       63.000461380000     109.119999990000      50.000000000000
      3491    2       60.047314750000     114.234999980000      50.000000000000
      3492    2       63.000461380000     112.529999990000      50.000000000000
      3493    2       60.047314750000     117.644999990000      50.000000000000
      3494    1       63.000461380000     115.939999980000      50.000000000000
      3495    2       60.047314750000     121.054999990000      50.000000000000
      3496    2       63.000461380000     119.349999980000      50.000000000000
      3497    1       65.953608000000     110.824999980000      50.000000000000
      3498    2       68.906754640000     109.119999990000      50.000000000000
      3499    2       65.953608000000     114.234999980000      50.000000000000
      3500    2       68.906754640000     112.529999990000      50.000000000000
      3501    2       65.953608000000     117.644999990000      50.000000000000
      3502    2       68.906754640000     115.939999980000      50.000000000000
      3503    2       65.953608000000     121.054999990000      50.000000000000
      3504    2       68.906754640000     119.349999980000      50.000000000000
      3505    3       59.062932550000     109.119999990000      50.000000000000
      3506    3       62.016079170000     110.824999980000      50.000000000000
      3507    3       59.062932550000     112.529999990000      50.000000000000
      3508    3       62.016079170000     114.234999980000      50.000000000000
      3509    3       59.062932550000     115.939999980000      50.000000000000
      3510    3       62.016079170000     117.644999990000      50.000000000000
      3511    3       59.062932550000     119.349999980000      50.000000000000
      3512    3       62.016079170000     121.054999990000      50.000000000000
      3513    3       64.969225800000     109.119999990000      50.000000000000
      3514    3       67.922372420000     110.824999980000      50.000000000000
      3515    3       64.969225800000     112.529999990000      50.000000000000
      3516    3       67.922372420000     114.234999980000      50.000000000000
      3517    3       64.969225800000     115.939999980000      50.000000000000
      3518    3       67.922372420000     117.644999990000      50.000000000000
      3519    3       64.969225800000     119.349999980000      50.000000000000
      3520    3       67.922372420000     121.054999990000      50.000000000000
      3521    2       71.859901260000     110.824999980000      50.000000000000
      3522    2       74.813047890000     109.119999990000      50.000000000000
      3523    2       71.859901260000     114.234999980000      50.000000000000
      3524    2       74.813047890000     112.529999990000      50.000000000000
      3525    2       71.859901260000     117.644999990000      50.000000000000
      3526    2       74.813047890000     115.939999980000      50.000000000000
      3527    2       71.859901260000     121.054999990000      50.000000000000
      3528    2       74.813047890000     119.349999980000      50.000000000000
      3529    2       77.766194510000     110.824999980000      50.000000000000
      3530    2       80.719341150000     109.119999990000      50.000000000000
      3531    2       77.766194510000     114.234999980000      50.000000000000
      3532    2       80.719341150000     112.529999990000      50.000000000000
      3533    2       77.766194510000     117.644999990000      50.000000000000
      3534    2       80.719341150000     115.939999980000      50.000000000000
      3535    1       77.766194510000     121.054999990000      50.000000000000
      3536    1       80.719341150000     119.349999980000      50.000000000000
      3537    3       70.875519050000     109.119999990000      50.000000000000
      3538    3       73.828665680000     110.824999980000      50.000000000000
      3539    3       70.875519050000     112.529999990000      50.000000000000
      3540    3       73.828665680000     114.234999980000      50.000000000000
      3541    3       70.875519050000     115.939999980000      50.000000000000
      3542    3       73.828665680000     117.644999990000      50.000000000000
      3543    3       70.875519050000     119.349999980000      50.000000000000
      3544    3       73.828665680000     121.054999990000      50.000000000000
      3545    3       76.781812310000     109.119999990000      50.000000000000
      3546    3       79.734958930000     110.824999980000      50.000000000000
      3547    3       76.781812310000     112.529999990000      50.000000000000
      3548    3       79.734958930000     114.234999980000      50.000000000000
      3549    3       76.781812310000     115.939999980000      50.000000000000
      3550    3       79.734958930000     117.644999990000      50.000000000000
      3551    3       76.781812310000     119.349999980000      50.000000000000
      3552    3       79.734958930000     121.054999990000      50.000000000000
      3553    1       83.672487770000     110.824999980000      50.000000000000
      3554    2       86.625634400000     109.119999990000      50.000000000000
      3555    2       83.672487770000     114.234999980000      50.000000000000
      3556    2       86.625634400000     112.529999990000      50.000000000000
      3557    2       83.672487770000     117.644999990000      50.000000000000
      3558    2       86.625634400000     115.939999980000      50.000000000000
      3559    2       83.672487770000     121.054999990000      50.000000000000
      3560    2       86.625634400000     119.349999980000      50.000000000000
      3561    2       89.578781020000     110.824999980000      50.000000000000
      3562    2       92.531927650000     109.119999990000      50.000000000000
      3563    2       89.578781020000     114.234999980000      50.000000000000
      3564    2       92.531927650000     112.529999990000      50.000000000000
      3565    2       89.578781020000     117.644999990000      50.000000000000
      3566    2       92.531927650000     115.939999980000      50.000000000000
      3567    2       89.578781020000     121.054999990000      50.000000000000
      3568    2       92.531927650000     119.349999980000      50.000000000000
      3569    3       82.688105560000     109.119999990000      50.000000000000
      3570    3       85.641252190000     110.824999980000      50.000000000000
      3571    3       82.688105560000     112.529999990000      50.000000000000
      3572    3       85.641252190000     114.234999980000      50.000000000000
      3573    3       82.688105560000     115.939999980000      50.000000000000
      3574    3       85.641252190000     117.644999990000      50.000000000000
      3575    3       82.688105560000     119.349999980000      50.000000000000
      3576    3       85.641252190000     121.054999990000      50.000000000000
      3577    3       88.594398820000     109.119999990000      50.000000000000
      3578    3       91.547545440000     110.824999980000      50.000000000000
      3579    3       88.594398820000     112.529999990000      50.000000000000
      3580    3       91.547545440000     114.234999980000      50.000000000000
      3581    3       88.594398820000     115.939999980000      50.000000000000
      3582    3       91.547545440000     117.644999990000      50.000000000000
      3583    3       88.594398820000     119.349999980000      50.000000000000
      3584    3       91.547545440000     121.054999990000      50.000000000000
      3585    1       95.485074280000     110.824999980000      50.000000000000
      3586    2       98.438220910000     109.119999990000      50.000000000000
      3587    2       95.485074280000     114.234999980000      50.000000000000
      3588    2       98.438220910000     112.529999990000      50.000000000000
      3589    1       95.485074280000     117.644999990000      50.000000000000
      3590    2       98.438220910000     115.939999980000      50.000000000000
      3591    2       95.485074280000     121.054999990000      50.000000000000
      3592    2       98.438220910000     119.349999980000      50.000000000000
      3593    2      101.391367530000     110.824999980000      50.000000000000
      3594    2      104.344514160000     109.119999990000      50.000000000000
      3595    2      101.391367530000     114.234999980000      50.000000000000
      3596    2      104.344514160000     112.529999990000      50.000000000000
      3597    2      101.391367530000     117.644999990000      50.000000000000
      3598    1      104.344514160000     115.939999980000      50.000000000000
      3599    2      101.391367530000     121.054999990000      50.000000000000
      3600    2      104.344514160000     119.349999980000      50.000000000000
      3601    3       94.500692070000     109.119999990000      50.000000000000
      3602    3       97.453838690000     110.824999980000      50.000000000000
      3603    3       94.500692070000     112.529999990000      50.000000000000
      3604    3       97.453838690000     114.234999980000      50.000000000000
      3605    3       94.500692070000     115.939999980000      50.000000000000
      3606    3       97.453838690000     117.644999990000      50.000000000000
      3607    3       94.500692070000     119.349999980000      50.000000000000
      3608    3       97.453838690000     121.054999990000      50.000000000000
      3609    3      100.406985330000     109.119999990000      50.000000000000
      3610    3      103.360131950000     110.824999980000      50.000000000000
      3611    3      100.406985330000     112.529999990000      50.000000000000
      3612    3      103.360131950000     114.234999980000      50.000000000000
      3613    3      100.406985330000     115.939999980000      50.000000000000
      3614    3      103.360131950000     117.644999990000      50.000000000000
      3615    3      100.406985330000     119.349999980000      50.000000000000
      3616    3      103.360131950000     121.054999990000      50.000000000000
      3617    2      107.297660790000     110.824999980000      50.000000000000
      3618    2      110.250807420000     109.119999990000      50.000000000000
      3619    2      107.297660790000     114.234999980000      50.000000000000
      3620    2      110.250807420000     112.529999990000      50.000000000000
      3621    2      107.297660790000     117.644999990000      50.000000000000
      3622    2      110.250807420000     115.939999980000      50.000000000000
      3623    2      107.297660790000     121.054999990000      50.000000000000
      3624    2      110.250807420000     119.349999980000      50.000000000000
      3625    2      113.203954040000     110.824999980000      50.000000000000
      3626    1      116.157100670000     109.119999990000      50.000000000000
      3627    2      113.203954040000     114.234999980000      50.000000000000
      3628    1      116.157100670000     112.529999990000      50.000000000000
      3629    2      113.203954040000     117.644999990000      50.000000000000
      3630    2      116.157100670000     115.939999980000      50.000000000000
      3631    2      113.203954040000     121.054999990000      50.000000000000
      3632    2      116.157100670000     119.349999980000      50.000000000000
      3633    3      106.313278580000     109.119999990000      50.000000000000
      3634    3      109.266425200000     110.824999980000      50.000000000000
      3635    3      106.313278580000     112.529999990000      50.000000000000
      3636    3      109.266425200000     114.234999980000      50.000000000000
      3637    3      106.313278580000     115.939999980000      50.000000000000
      3638    3      109.266425200000     117.644999990000      50.000000000000
      3639    3      106.313278580000     119.349999980000      50.000000000000
      3640    3      109.266425200000     121.054999990000      50.000000000000
      3641    3      112.219571840000     109.119999990000      50.000000000000
      3642    3      115.172718460000     110.824999980000      50.000000000000
      3643    3      112.219571840000     112.529999990000      50.000000000000
      3644    3      115.172718460000     114.234999980000      50.000000000000
      3645    3      112.219571840000     115.939999980000      50.000000000000
      3646    3      115.172718460000     117.644999990000      50.000000000000
      3647    3      112.219571840000     119.349999980000      50.000000000000
      3648    3      115.172718460000     121.054999990000      50.000000000000
      3649    2      119.110247290000     110.824999980000      50.000000000000
      3650    2      122.063393930000     109.119999990000      50.000000000000
      3651    2      119.110247290000     114.234999980000      50.000000000000
      3652    2      122.063393930000     112.529999990000      50.000000000000
      3653    2      119.110247290000     117.644999990000      50.000000000000
      3654    1      122.063393930000     115.939999980000      50.000000000000
      3655    2      119.110247290000     121.054999990000      50.000000000000
      3656    2      122.063393930000     119.349999980000      50.000000000000
      3657    2      125.016540550000     110.824999980000      50.000000000000
      3658    1      127.969687180000     109.119999990000      50.000000000000
      3659    1      125.016540550000     114.234999980000      50.000000000000
      3660    1      127.969687180000     112.529999990000      50.000000000000
      3661    2      125.016540550000     117.644999990000      50.000000000000
      3662    2      127.969687180000     115.939999980000      50.000000000000
      3663    2      125.016540550000     121.054999990000      50.000000000000
      3664    2      127.969687180000     119.349999980000      50.000000000000
      3665    3      118.125865090000     109.119999990000      50.000000000000
      3666    3      121.079011710000     110.824999980000      50.000000000000
      3667    3      118.125865090000     112.529999990000      50.000000000000
      3668    3      121.079011710000     114.234999980000      50.000000000000
      3669    3      118.125865090000     115.939999980000      50.000000000000
      3670    3      121.079011710000     117.644999990000      50.000000000000
      3671    3      118.125865090000     119.349999980000      50.000000000000
      3672    3      121.079011710000     121.054999990000      50.000000000000
      3673    3      124.032158350000     109.119999990000      50.000000000000
      3674    3      126.985304970000     110.824999980000      50.000000000000
      3675    3      124.032158350000     112.529999990000      50.000000000000
      3676    3      126.985304970000     114.234999980000      50.000000000000
      3677    3      124.032158350000     115.939999980000      50.000000000000
      3678    3      126.985304970000     117.644999990000      50.000000000000
      3679    3      124.032158350000     119.349999980000      50.000000000000
      3680    3      126.985304970000     121.054999990000      50.000000000000
      3681    2      130.922833800000     110.824999980000      50.000000000000
      3682    2      133.875980440000     109.119999990000      50.000000000000
      3683    2      130.922833800000     114.234999980000      50.000000000000
      3684    2      133.875980440000     112.529999990000      50.000000000000
      3685    2      130.922833800000     117.644999990000      50.000000000000
      3686    2      133.875980440000     115.939999980000      50.000000000000
      3687    2      130.922833800000     121.054999990000      50.000000000000
      3688    2      133.875980440000     119.349999980000      50.000000000000
      3689    2      136.829127060000     110.824999980000      50.000000000000
      3690    2      139.782273690000     109.119999990000      50.000000000000
      3691    2      136.829127060000     114.234999980000      50.000000000000
      3692    2      139.782273690000     112.529999990000      50.000000000000
      3693    2      136.829127060000     117.644999990000      50.000000000000
      3694    2      139.782273690000     115.939999980000      50.000000000000
      3695    1      136.829127060000     121.054999990000      50.000000000000
      3696    2      139.782273690000     119.349999980000      50.000000000000
      3697    3      129.938451600000     109.119999990000      50.000000000000
      3698    3      132.891598220000     110.824999980000      50.000000000000
      3699    3      129.938451600000     112.529999990000      50.000000000000
      3700    3      132.891598220000     114.234999980000      50.000000000000
      3701    3      129.938451600000     115.939999980000      50.000000000000
      3702    3      132.891598220000     117.644999990000      50.000000000000
      3703    3      129.938451600000     119.349999980000      50.000000000000
      3704    3      132.891598220000     121.054999990000      50.000000000000
      3705    3      135.844744850000     109.119999990000      50.000000000000
      3706    3      138.797891480000     110.824999980000      50.000000000000
      3707    3      135.844744850000     112.529999990000      50.000000000000
      3708    3      138.797891480000     114.234999980000      50.000000000000
      3709    3      135.844744850000     115.939999980000      50.000000000000
      3710    3      138.797891480000     117.644999990000      50.000000000000
      3711    3      135.844744850000     119.349999980000      50.000000000000
      3712    3      138.797891480000     121.054999990000      50.000000000000
      3713    2      142.735420310000     110.824999980000      50.000000000000
      3714    2      145.688566950000     109.119999990000      50.000000000000
      3715    2      142.735420310000     114.234999980000      50.000000000000
      3716    2      145.688566950000     112.529999990000      50.000000000000
      3717    2      142.735420310000     117.644999990000      50.000000000000
      3718    1      145.688566950000     115.939999980000      50.000000000000
      3719    1      142.735420310000     121.054999990000      50.000000000000
      3720    1      145.688566950000     119.349999980000      50.000000000000
      3721    2      148.641713570000     110.824999980000      50.000000000000
      3722    1      151.594860200000     109.119999990000      50.000000000000
      3723    1      148.641713570000     114.234999980000      50.000000000000
      3724    1      151.594860200000     112.529999990000      50.000000000000
      3725    2      148.641713570000     117.644999990000      50.000000000000
      3726    2      151.594860200000     115.939999980000      50.000000000000
      3727    2      148.641713570000     121.054999990000      50.000000000000
      3728    2      151.594860200000     119.349999980000      50.000000000000
      3729    3      141.751038110000     109.119999990000      50.000000000000
      3730    3      144.704184730000     110.824999980000      50.000000000000
      3731    3      141.751038110000     112.529999990000      50.000000000000
      3732    3      144.704184730000     114.234999980000      50.000000000000
      3733    3      141.751038110000     115.939999980000      50.000000000000
      3734    3      144.704184730000     117.644999990000      50.000000000000
      3735    3      141.751038110000     119.349999980000      50.000000000000
      3736    3      144.704184730000     121.054999990000      50.000000000000
      3737    3      147.657331360000     109.119999990000      50.000000000000
      3738    3      150.610477990000     110.824999980000      50.000000000000
      3739    3      147.657331360000     112.529999990000      50.000000000000
      3740    3      150.610477990000     114.234999980000      50.000000000000
      3741    3      147.657331360000     115.939999980000      50.000000000000
      3742    3      150.610477990000     117.644999990000      50.000000000000
      3743    3      147.657331360000     119.349999980000      50.000000000000
      3744    3      150.610477990000     121.054999990000      50.000000000000
      3745    2        0.984382200000     124.464999980000      50.000000000000
      3746    2        3.937528840000     122.759999980000      50.000000000000
      3747    2        0.984382200000     127.874999980000      50.000000000000
      3748    2        3.937528840000     126.169999990000      50.000000000000
      3749    2        0.984382200000     131.284999990000      50.000000000000
      3750    2        3.937528840000     129.579999980000      50.000000000000
      3751    2        0.984382200000     134.694999990000      50.000000000000
      3752    1        3.937528840000     132.989999980000      50.000000000000
      3753    2        6.890675460000     124.464999980000      50.000000000000
      3754    1        9.843822090000     122.759999980000      50.000000000000
      3755    2        6.890675460000     127.874999980000      50.000000000000
      3756    1        9.843822090000     126.169999990000      50.000000000000
      3757    2        6.890675460000     131.284999990000      50.000000000000
      3758    2        9.843822090000     129.579999980000      50.000000000000
      3759    2        6.890675460000     134.694999990000      50.000000000000
      3760    2        9.843822090000     132.989999980000      50.000000000000
      3761    3        0.000000000000     122.759999980000      50.000000000000
      3762    3        2.953146620000     124.464999980000      50.000000000000
      3763    3        0.000000000000     126.169999990000      50.000000000000
      3764    3        2.953146620000     127.874999980000      50.000000000000
      3765    3        0.000000000000     129.579999980000      50.000000000000
      3766    3        2.953146620000     131.284999990000      50.000000000000
      3767    3        0.000000000000     132.989999980000      50.000000000000
      3768    3        2.953146620000     134.694999990000      50.000000000000
      3769    3        5.906293250000     122.759999980000      50.000000000000
      3770    3        8.859439880000     124.464999980000      50.000000000000
      3771    3        5.906293250000     126.169999990000      50.000000000000
      3772    3        8.859439880000     127.874999980000      50.000000000000
      3773    3        5.906293250000     129.579999980000      50.000000000000
      3774    3        8.859439880000     131.284999990000      50.000000000000
      3775    3        5.906293250000     132.989999980000      50.000000000000
      3776    3        8.859439880000     134.694999990000      50.000000000000
      3777    2       12.796968710000     124.464999980000      50.000000000000
      3778    2       15.750115350000     122.759999980000      50.000000000000
      3779    2       12.796968710000     127.874999980000      50.000000000000
      3780    2       15.750115350000     126.169999990000      50.000000000000
      3781    2       12.796968710000     131.284999990000      50.000000000000
      3782    2       15.750115350000     129.579999980000      50.000000000000
      3783    2       12.796968710000     134.694999990000      50.000000000000
      3784    2       15.750115350000     132.989999980000      50.000000000000
      3785    2       18.703261970000     124.464999980000      50.000000000000
      3786    2       21.656408600000     122.759999980000      50.000000000000
      3787    2       18.703261970000     127.874999980000      50.000000000000
      3788    2       21.656408600000     126.169999990000      50.000000000000
      3789    1       18.703261970000     131.284999990000      50.000000000000
      3790    1       21.656408600000     129.579999980000      50.000000000000
      3791    2       18.703261970000     134.694999990000      50.000000000000
      3792    2       21.656408600000     132.989999980000      50.000000000000
      3793    3       11.812586510000     122.759999980000      50.000000000000
      3794    3       14.765733130000     124.464999980000      50.000000000000
      3795    3       11.812586510000     126.169999990000      50.000000000000
      3796    3       14.765733130000     127.874999980000      50.000000000000
      3797    3       11.812586510000     129.579999980000      50.000000000000
      3798    3       14.765733130000     131.284999990000      50.000000000000
      3799    3       11.812586510000     132.989999980000      50.000000000000
      3800    3       14.765733130000     134.694999990000      50.000000000000
      3801    3       17.718879760000     122.759999980000      50.000000000000
      3802    3       20.672026390000     124.464999980000      50.000000000000
      3803    3       17.718879760000     126.169999990000      50.000000000000
      3804    3       20.672026390000     127.874999980000      50.000000000000
      3805    3       17.718879760000     129.579999980000      50.000000000000
      3806    3       20.672026390000     131.284999990000      50.000000000000
      3807    3       17.718879760000     132.989999980000      50.000000000000
      3808    3       20.672026390000     134.694999990000      50.000000000000
      3809    2       24.609555220000     124.464999980000      50.000000000000
      3810    2       27.562701850000     122.759999980000      50.000000000000
      3811    2       24.609555220000     127.874999980000      50.000000000000
      3812    1       27.562701850000     126.169999990000      50.000000000000
      3813    2       24.609555220000     131.284999990000      50.000000000000
      3814    2       27.562701850000     129.579999980000      50.000000000000
      3815    2       24.609555220000     134.694999990000      50.000000000000
      3816    2       27.562701850000     132.989999980000      50.000000000000
      3817    2       30.515848480000     124.464999980000      50.000000000000
      3818    2       33.468995110000     122.759999980000      50.000000000000
      3819    2       30.515848480000     127.874999980000      50.000000000000
      3820    2       33.468995110000     126.169999990000      50.000000000000
      3821    2       30.515848480000     131.284999990000      50.000000000000
      3822    1       33.468995110000     129.579999980000      50.000000000000
      3823    2       30.515848480000     134.694999990000      50.000000000000
      3824    2       33.468995110000     132.989999980000      50.000000000000
      3825    3       23.625173020000     122.759999980000      50.000000000000
      3826    3       26.578319640000     124.464999980000      50.000000000000
      3827    3       23.625173020000     126.169999990000      50.000000000000
      3828    3       26.578319640000     127.874999980000      50.000000000000
      3829    3       23.625173020000     129.579999980000      50.000000000000
      3830    3       26.578319640000     131.284999990000      50.000000000000
      3831    3       23.625173020000     132.989999980000      50.000000000000
      3832    3       26.578319640000     134.694999990000      50.000000000000
      3833    3       29.531466270000     122.759999980000      50.000000000000
      3834    3       32.484612890000     124.464999980000      50.000000000000
      3835    3       29.531466270000     126.169999990000      50.000000000000
      3836    3       32.484612890000     127.874999980000      50.000000000000
      3837    3       29.531466270000     129.579999980000      50.000000000000
      3838    3       32.484612890000     131.284999990000      50.000000000000
      3839    3       29.531466270000     132.989999980000      50.000000000000
      3840    3       32.484612890000     134.694999990000      50.000000000000
      3841    2       36.422141730000     124.464999980000      50.000000000000
      3842    2       39.375288360000     122.759999980000      50.000000000000
      3843    2       36.422141730000     127.874999980000      50.000000000000
      3844    2       39.375288360000     126.169999990000      50.000000000000
      3845    2       36.422141730000     131.284999990000      50.000000000000
      3846    2       39.375288360000     129.579999980000      50.000000000000
      3847    2       36.422141730000     134.694999990000      50.000000000000
      3848    2       39.375288360000     132.989999980000      50.000000000000
      3849    1       42.328434990000     124.464999980000      50.000000000000
      3850    2       45.281581620000     122.759999980000      50.000000000000
      3851    2       42.328434990000     127.874999980000      50.000000000000
      3852    2       45.281581620000     126.169999990000      50.000000000000
      3853    2       42.328434990000     131.284999990000      50.000000000000
      3854    2       45.281581620000     129.579999980000      50.000000000000
      3855    2       42.328434990000     134.694999990000      50.000000000000
      3856    2       45.281581620000     132.989999980000      50.000000000000
      3857    3       35.437759530000     122.759999980000      50.000000000000
      3858    3       38.390906150000     124.464999980000      50.000000000000
      3859    3       35.437759530000     126.169999990000      50.000000000000
      3860    3       38.390906150000     127.874999980000      50.000000000000
      3861    3       35.437759530000     129.579999980000      50.000000000000
      3862    3       38.390906150000     131.284999990000      50.000000000000
      3863    3       35.437759530000     132.989999980000      50.000000000000
      3864    3       38.390906150000     134.694999990000      50.000000000000
      3865    3       41.344052780000     122.759999980000      50.000000000000
      3866    3       44.297199400000     124.464999980000      50.000000000000
      3867    3       41.344052780000     126.169999990000      50.000000000000
      3868    3       44.297199400000     127.874999980000      50.000000000000
      3869    3       41.344052780000     129.579999980000      50.000000000000
      3870    3       44.297199400000     131.284999990000      50.000000000000
      3871    3       41.344052780000     132.989999980000      50.000000000000
      3872    3       44.297199400000     134.694999990000      50.000000000000
      3873    2       48.234728240000     124.464999980000      50.000000000000
      3874    2       51.187874870000     122.759999980000      50.000000000000
      3875    2       48.234728240000     127.874999980000      50.000000000000
      3876    2       51.187874870000     126.169999990000      50.000000000000
      3877    2       48.234728240000     131.284999990000      50.000000000000
      3878    2       51.187874870000     129.579999980000      50.000000000000
      3879    2       48.234728240000     134.694999990000      50.000000000000
      3880    2       51.187874870000     132.989999980000      50.000000000000
      3881    2       54.141021490000     124.464999980000      50.000000000000
      3882    2       57.094168130000     122.759999980000      50.000000000000
      3883    2       54.141021490000     127.874999980000      50.000000000000
      3884    2       57.094168130000     126.169999990000      50.000000000000
      3885    2       54.141021490000     131.284999990000      50.000000000000
      3886    2       57.094168130000     129.579999980000      50.000000000000
      3887    2       54.141021490000     134.694999990000      50.000000000000
      3888    2       57.094168130000     132.989999980000      50.000000000000
      3889    3       47.250346040000     122.759999980000      50.000000000000
      3890    3       50.203492660000     124.464999980000      50.000000000000
      3891    3       47.250346040000     126.169999990000      50.000000000000
      3892    3       50.203492660000     127.874999980000      50.000000000000
      3893    3       47.250346040000     129.579999980000      50.000000000000
      3894    3       50.203492660000     131.284999990000      50.000000000000
      3895    3       47.250346040000     132.989999980000      50.000000000000
      3896    3       50.203492660000     134.694999990000      50.000000000000
      3897    3       53.156639290000     122.759999980000      50.000000000000
      3898    3       56.109785910000     124.464999980000      50.000000000000
      3899    3       53.156639290000     126.169999990000      50.000000000000
      3900    3       56.109785910000     127.874999980000      50.000000000000
      3901    3       53.156639290000     129.579999980000      50.000000000000
      3902    3       56.109785910000     131.284999990000      50.000000000000
      3903    3       53.156639290000     132.989999980000      50.000000000000
      3904    3       56.109785910000     134.694999990000      50.000000000000
      3905    2       60.047314750000     124.464999980000      50.000000000000
      3906    2       63.000461380000     122.759999980000      50.000000000000
      3907    2       60.047314750000     127.874999980000      50.000000000000
      3908    2       63.000461380000     126.169999990000      50.000000000000
      3909    2       60.047314750000     131.284999990000      50.000000000000
      3910    2       63.000461380000     129.579999980000      50.000000000000
      3911    2       60.047314750000     134.694999990000      50.000000000000
      3912    1       63.000461380000     132.989999980000      50.000000000000
      3913    2       65.953608000000     124.464999980000      50.000000000000
      3914    2       68.906754640000     122.759999980000      50.000000000000
      3915    2       65.953608000000     127.874999980000      50.000000000000
      3916    2       68.906754640000     126.169999990000      50.000000000000
      3917    2       65.953608000000     131.284999990000      50.000000000000
      3918    1       68.906754640000     129.579999980000      50.000000000000
      3919    2       65.953608000000     134.694999990000      50.000000000000
      3920    2       68.906754640000     132.989999980000      50.000000000000
      3921    3       59.062932550000     122.759999980000      50.000000000000
      3922    3       62.016079170000     124.464999980000      50.000000000000
      3923    3       59.062932550000     126.169999990000      50.000000000000
      3924    3       62.016079170000     127.874999980000      50.000000000000
      3925    3       59.062932550000     129.579999980000      50.000000000000
      3926    3       62.016079170000     131.284999990000      50.000000000000
      3927    3       59.062932550000     132.989999980000      50.000000000000
      3928    3       62.016079170000     134.694999990000      50.000000000000
      3929    3       64.969225800000     122.759999980000      50.000000000000
      3930    3       67.922372420000     124.464999980000      50.000000000000
      3931    3       64.969225800000     126.169999990000      50.000000000000
      3932    3       67.922372420000     127.874999980000      50.000000000000
      3933    3       64.969225800000     129.579999980000      50.000000000000
      3934    3       67.922372420000     131.284999990000      50.000000000000
      3935    3       64.969225800000     132.989999980000      50.000000000000
      3936    3       67.922372420000     134.694999990000      50.000000000000
      3937    2       71.859901260000     124.464999980000      50.000000000000
      3938    2       74.813047890000     122.759999980000      50.000000000000
      3939    2       71.859901260000     127.874999980000      50.000000000000
      3940    2       74.813047890000     126.169999990000      50.000000000000
      3941    2       71.859901260000     131.284999990000      50.000000000000
      3942    2       74.813047890000     129.579999980000      50.000000000000
      3943    2       71.859901260000     134.694999990000      50.000000000000
      3944    2       74.813047890000     132.989999980000      50.000000000000
      3945    2       77.766194510000     124.464999980000      50.000000000000
      3946    2       80.719341150000     122.759999980000      50.000000000000
      3947    2       77.766194510000     127.874999980000      50.000000000000
      3948    2       80.719341150000     126.169999990000      50.000000000000
      3949    2       77.766194510000     131.284999990000      50.000000000000
      3950    2       80.719341150000     129.579999980000      50.000000000000
      3951    2       77.766194510000     134.694999990000      50.000000000000
      3952    2       80.719341150000     132.989999980000      50.000000000000
      3953    3       70.875519050000     122.759999980000      50.000000000000
      3954    3       73.828665680000     124.464999980000      50.000000000000
      3955    3       70.875519050000     126.169999990000      50.000000000000
      3956    3       73.828665680000     127.874999980000      50.000000000000
      3957    3       70.875519050000     129.579999980000      50.000000000000
      3958    3       73.828665680000     131.284999990000      50.000000000000
      3959    3       70.875519050000     132.989999980000      50.000000000000
      3960    3       73.828665680000     134.694999990000      50.000000000000
      3961    3       76.781812310000     122.759999980000      50.000000000000
      3962    3       79.734958930000     124.464999980000      50.000000000000
      3963    3       76.781812310000     126.169999990000      50.000000000000
      3964    3       79.734958930000     127.874999980000      50.000000000000
      3965    3       76.781812310000     129.579999980000      50.000000000000
      3966    3       79.734958930000     131.284999990000      50.000000000000
      3967    3       76.781812310000     132.989999980000      50.000000000000
      3968    3       79.734958930000     134.694999990000      50.000000000000
      3969    2       83.672487770000     124.464999980000      50.000000000000
      3970    2       86.625634400000     122.759999980000      50.000000000000
      3971    2       83.672487770000     127.874999980000      50.000000000000
      3972    2       86.625634400000     126.169999990000      50.000000000000
      3973    1       83.672487770000     131.284999990000      50.000000000000
      3974    2       86.625634400000     129.579999980000      50.000000000000
      3975    1       83.672487770000     134.694999990000      50.000000000000
      3976    2       86.625634400000     132.989999980000      50.000000000000
      3977    2       89.578781020000     124.464999980000      50.000000000000
      3978    2       92.531927650000     122.759999980000      50.000000000000
      3979    2       89.578781020000     127.874999980000      50.000000000000
      3980    2       92.531927650000     126.169999990000      50.000000000000
      3981    2       89.578781020000     131.284999990000      50.000000000000
      3982    2       92.531927650000     129.579999980000      50.000000000000
      3983    2       89.578781020000     134.694999990000      50.000000000000
      3984    2       92.531927650000     132.989999980000      50.000000000000
      3985    3       82.688105560000     122.759999980000      50.000000000000
      3986    3       85.641252190000     124.464999980000      50.000000000000
      3987    3       82.688105560000     126.169999990000      50.000000000000
      3988    3       85.641252190000     127.874999980000      50.000000000000
      3989    3       82.688105560000     129.579999980000      50.000000000000
      3990    3       85.641252190000     131.284999990000      50.000000000000
      3991    3       82.688105560000     132.989999980000      50.000000000000
      3992    3       85.641252190000     134.694999990000      50.000000000000
      3993    3       88.594398820000     122.759999980000      50.000000000000
      3994    3       91.547545440000     124.464999980000      50.000000000000
      3995    3       88.594398820000     126.169999990000      50.000000000000
      3996    3       91.547545440000     127.874999980000      50.000000000000
      3997    3       88.594398820000     129.579999980000      50.000000000000
      3998    3       91.547545440000     131.284999990000      50.000000000000
      3999    3       88.594398820000     132.989999980000      50.000000000000
      4000    3       91.547545440000     134.694999990000      50.000000000000
      4001    2       95.485074280000     124.464999980000      50.000000000000
      4002    2       98.438220910000     122.759999980000      50.000000000000
      4003    2       95.485074280000     127.874999980000      50.000000000000
      4004    2       98.438220910000     126.169999990000      50.000000000000
      4005    2       95.485074280000     131.284999990000      50.000000000000
      4006    2       98.438220910000     129.579999980000      50.000000000000
      4007    2       95.485074280000     134.694999990000      50.000000000000
      4008    2       98.438220910000     132.989999980000      50.000000000000
      4009    2      101.391367530000     124.464999980000      50.000000000000
      4010    2      104.344514160000     122.759999980000      50.000000000000
      4011    2      101.391367530000     127.874999980000      50.000000000000
      4012    2      104.344514160000     126.169999990000      50.000000000000
      4013    2      101.391367530000     131.284999990000      50.000000000000
      4014    2      104.344514160000     129.579999980000      50.000000000000
      4015    2      101.391367530000     134.694999990000      50.000000000000
      4016    1      104.344514160000     132.989999980000      50.000000000000
      4017    3       94.500692070000     122.759999980000      50.000000000000
      4018    3       97.453838690000     124.464999980000      50.000000000000
      4019    3       94.500692070000     126.169999990000      50.000000000000
      4020    3       97.453838690000     127.874999980000      50.000000000000
      4021    3       94.500692070000     129.579999980000      50.000000000000
      4022    3       97.453838690000     131.284999990000      50.000000000000
      4023    3       94.500692070000     132.989999980000      50.000000000000
      4024    3       97.453838690000     134.694999990000      50.000000000000
      4025    3      100.406985330000     122.759999980000      50.000000000000
      4026    3      103.360131950000     124.464999980000      50.000000000000
      4027    3      100.406985330000     126.169999990000      50.000000000000
      4028    3      103.360131950000     127.874999980000      50.000000000000
      4029    3      100.406985330000     129.579999980000      50.000000000000
      4030    3      103.360131950000     131.284999990000      50.000000000000
      4031    3      100.406985330000     132.989999980000      50.000000000000
      4032    3      103.360131950000     134.694999990000      50.000000000000
      4033    2      107.297660790000     124.464999980000      50.000000000000
      4034    2      110.250807420000     122.759999980000      50.000000000000
      4035    2      107.297660790000     127.874999980000      50.000000000000
      4036    2      110.250807420000     126.169999990000      50.000000000000
      4037    2      107.297660790000     131.284999990000      50.000000000000
      4038    2      110.250807420000     129.579999980000      50.000000000000
      4039    2      107.297660790000     134.694999990000      50.000000000000
      4040    2      110.250807420000     132.989999980000      50.000000000000
      4041    2      113.203954040000     124.464999980000      50.000000000000
      4042    2      116.157100670000     122.759999980000      50.000000000000
      4043    1      113.203954040000     127.874999980000      50.000000000000
      4044    2      116.157100670000     126.169999990000      50.000000000000
      4045    2      113.203954040000     131.284999990000      50.000000000000
      4046    2      116.157100670000     129.579999980000      50.000000000000
      4047    2      113.203954040000     134.694999990000      50.000000000000
      4048    2      116.157100670000     132.989999980000      50.000000000000
      4049    3      106.313278580000     122.759999980000      50.000000000000
      4050    3      109.266425200000     124.464999980000      50.000000000000
      4051    3      106.313278580000     126.169999990000      50.000000000000
      4052    3      109.266425200000     127.874999980000      50.000000000000
      4053    3      106.313278580000     129.579999980000      50.000000000000
      4054    3      109.266425200000     131.284999990000      50.000000000000
      4055    3      106.313278580000     132.989999980000      50.000000000000
      4056    3      109.266425200000     134.694999990000      50.000000000000
      4057    3      112.219571840000     122.759999980000      50.000000000000
      4058    3      115.172718460000     124.464999980000      50.000000000000
      4059    3      112.219571840000     126.169999990000      50.000000000000
      4060    3      115.172718460000     127.874999980000      50.000000000000
      4061    3      112.219571840000     129.579999980000      50.000000000000
      4062    3      115.172718460000     131.284999990000      50.000000000000
      4063    3      112.219571840000     132.989999980000      50.000000000000
      4064    3      115.172718460000     134.694999990000      50.000000000000
      4065    2      119.110247290000     124.464999980000      50.000000000000
      4066    2      122.063393930000     122.759999980000      50.000000000000
      4067    1      119.110247290000     127.874999980000      50.000000000000
      4068    2      122.063393930000     126.169999990000      50.000000000000
      4069    2      119.110247290000     131.284999990000      50.000000000000
      4070    2      122.063393930000     129.579999980000      50.000000000000
      4071    2      119.110247290000     134.694999990000      50.000000000000
      4072    2      122.063393930000     132.989999980000      50.000000000000
      4073    2      125.016540550000     124.464999980000      50.000000000000
      4074    2      127.969687180000     122.759999980000      50.000000000000
      4075    2      125.016540550000     127.874999980000      50.000000000000
      4076    2      127.969687180000     126.169999990000      50.000000000000
      4077    2      125.016540550000     131.284999990000      50.000000000000
      4078    2      127.969687180000     129.579999980000      50.000000000000
      4079    2      125.016540550000     134.694999990000      50.000000000000
      4080    2      127.969687180000     132.989999980000      50.000000000000
      4081    3      118.125865090000     122.759999980000      50.000000000000
      4082    3      121.079011710000     124.464999980000      50.000000000000
      4083    3      118.125865090000     126.169999990000      50.000000000000
      4084    3      121.079011710000     127.874999980000      50.000000000000
      4085    3      118.125865090000     129.579999980000      50.000000000000
      4086    3      121.079011710000     131.284999990000      50.000000000000
      4087    3      118.125865090000     132.989999980000      50.000000000000
      4088    3      121.079011710000     134.694999990000      50.000000000000
      4089    3      124.032158350000     122.759999980000      50.000000000000
      4090    3      126.985304970000     124.464999980000      50.000000000000
      4091    3      124.032158350000     126.169999990000      50.000000000000
      4092    3      126.985304970000     127.874999980000      50.000000000000
      4093    3      124.032158350000     129.579999980000      50.000000000000
      4094    3      126.985304970000     131.284999990000      50.000000000000
      4095    3      124.032158350000     132.989999980000      50.000000000000
      4096    3      126.985304970000     134.694999990000      50.000000000000
      4097    2      130.922833800000     124.464999980000      50.000000000000
      4098    2      133.875980440000     122.759999980000      50.000000000000
      4099    2      130.922833800000     127.874999980000      50.000000000000
      4100    2      133.875980440000     126.169999990000      50.000000000000
      4101    2      130.922833800000     131.284999990000      50.000000000000
      4102    2      133.875980440000     129.579999980000      50.000000000000
      4103    2      130.922833800000     134.694999990000      50.000000000000
      4104    2      133.875980440000     132.989999980000      50.000000000000
      4105    2      136.829127060000     124.464999980000      50.000000000000
      4106    2      139.782273690000     122.759999980000      50.000000000000
      4107    2      136.829127060000     127.874999980000      50.000000000000
      4108    2      139.782273690000     126.169999990000      50.000000000000
      4109    2      136.829127060000     131.284999990000      50.000000000000
      4110    2      139.782273690000     129.579999980000      50.000000000000
      4111    2      136.829127060000     134.694999990000      50.000000000000
      4112    2      139.782273690000     132.989999980000      50.000000000000
      4113    3      129.938451600000     122.759999980000      50.000000000000
      4114    3      132.891598220000     124.464999980000      50.000000000000
      4115    3      129.938451600000     126.169999990000      50.000000000000
      4116    3      132.891598220000     127.874999980000      50.000000000000
      4117    3      129.938451600000     129.579999980000      50.000000000000
      4118    3      132.891598220000     131.284999990000      50.000000000000
      4119    3      129.938451600000     132.989999980000      50.000000000000
      4120    3      132.891598220000     134.694999990000      50.000000000000
      4121    3      135.844744850000     122.759999980000      50.000000000000
      4122    3      138.797891480000     124.464999980000      50.000000000000
      4123    3      135.844744850000     126.169999990000      50.000000000000
      4124    3      138.797891480000     127.874999980000      50.000000000000
      4125    3      135.844744850000     129.579999980000      50.000000000000
      4126    3      138.797891480000     131.284999990000      50.000000000000
      4127    3      135.844744850000     132.989999980000      50.000000000000
      4128    3      138.797891480000     134.694999990000      50.000000000000
      4129    2      142.735420310000     124.464999980000      50.000000000000
      4130    2      145.688566950000     122.759999980000      50.000000000000
      4131    2      142.735420310000     127.874999980000      50.000000000000
      4132    2      145.688566950000     126.169999990000      50.000000000000
      4133    2      142.735420310000     131.284999990000      50.000000000000
      4134    2      145.688566950000     129.579999980000      50.000000000000
      4135    2      142.735420310000     134.694999990000      50.000000000000
      4136    2      145.688566950000     132.989999980000      50.000000000000
      4137    2      148.641713570000     124.464999980000      50.000000000000
      4138    2      151.594860200000     122.759999980000      50.000000000000
      4139    2      148.641713570000     127.874999980000      50.000000000000
      4140    1      151.594860200000     126.169999990000      50.000000000000
      4141    2      148.641713570000     131.284999990000      50.000000000000
      4142    2      151.594860200000     129.579999980000      50.000000000000
      4143    2      148.641713570000     134.694999990000      50.000000000000
      4144    2      151.594860200000     132.989999980000      50.000000000000
      4145    3      141.751038110000     122.759999980000      50.000000000000
      4146    3      144.704184730000     124.464999980000      50.000000000000
      4147    3      141.751038110000     126.169999990000      50.000000000000
      4148    3      144.704184730000     127.874999980000      50.000000000000
      4149    3      141.751038110000     129.579999980000      50.000000000000
      4150    3      144.704184730000     131.284999990000      50.000000000000
      4151    3      141.751038110000     132.989999980000      50.000000000000
      4152    3      144.704184730000     134.694999990000      50.000000000000
      4153    3      147.657331360000     122.759999980000      50.000000000000
      4154    3      150.610477990000     124.464999980000      50.000000000000
      4155    3      147.657331360000     126.169999990000      50.000000000000
      4156    3      150.610477990000     127.874999980000      50.000000000000
      4157    3      147.657331360000     129.579999980000      50.000000000000
      4158    3      150.610477990000     131.284999990000      50.000000000000
      4159    3      147.657331360000     132.989999980000      50.000000000000
      4160    3      150.610477990000     134.694999990000      50.000000000000
      4161    2        0.984382200000     138.104999980000      50.000000000000
      4162    2        3.937528840000     136.399999980000      50.000000000000
      4163    1        0.984382200000     141.514999980000      50.000000000000
      4164    2        3.937528840000     139.809999990000      50.000000000000
      4165    2        0.984382200000     144.924999980000      50.000000000000
      4166    1        3.937528840000     143.219999980000      50.000000000000
      4167    1        0.984382200000     148.334999990000      50.000000000000
      4168    1        3.937528840000     146.629999980000      50.000000000000
      4169    1        6.890675460000     138.104999980000      50.000000000000
      4170    2        9.843822090000     136.399999980000      50.000000000000
      4171    1        6.890675460000     141.514999980000      50.000000000000
      4172    2        9.843822090000     139.809999990000      50.000000000000
      4173    2        6.890675460000     144.924999980000      50.000000000000
      4174    2        9.843822090000     143.219999980000      50.000000000000
      4175    2        6.890675460000     148.334999990000      50.000000000000
      4176    2        9.843822090000     146.629999980000      50.000000000000
      4177    3        0.000000000000     136.399999980000      50.000000000000
      4178    3        2.953146620000     138.104999980000      50.000000000000
      4179    3        0.000000000000     139.809999990000      50.000000000000
      4180    3        2.953146620000     141.514999980000      50.000000000000
      4181    3        0.000000000000     143.219999980000      50.000000000000
      4182    3        2.953146620000     144.924999980000      50.000000000000
      4183    3        0.000000000000     146.629999980000      50.000000000000
      4184    3        2.953146620000     148.334999990000      50.000000000000
      4185    3        5.906293250000     136.399999980000      50.000000000000
      4186    3        8.859439880000     138.104999980000      50.000000000000
      4187    3        5.906293250000     139.809999990000      50.000000000000
      4188    3        8.859439880000     141.514999980000      50.000000000000
      4189    3        5.906293250000     143.219999980000      50.000000000000
      4190    3        8.859439880000     144.924999980000      50.000000000000
      4191    3        5.906293250000     146.629999980000      50.000000000000
      4192    3        8.859439880000     148.334999990000      50.000000000000
      4193    2       12.796968710000     138.104999980000      50.000000000000
      4194    2       15.750115350000     136.399999980000      50.000000000000
      4195    1       12.796968710000     141.514999980000      50.000000000000
      4196    2       15.750115350000     139.809999990000      50.000000000000
      4197    2       12.796968710000     144.924999980000      50.000000000000
      4198    2       15.750115350000     143.219999980000      50.000000000000
      4199    2       12.796968710000     148.334999990000      50.000000000000
      4200    2       15.750115350000     146.629999980000      50.000000000000
      4201    2       18.703261970000     138.104999980000      50.000000000000
      4202    2       21.656408600000     136.399999980000      50.000000000000
      4203    2       18.703261970000     141.514999980000      50.000000000000
      4204    2       21.656408600000     139.809999990000      50.000000000000
      4205    1       18.703261970000     144.924999980000      50.000000000000
      4206    2       21.656408600000     143.219999980000      50.000000000000
      4207    2       18.703261970000     148.334999990000      50.000000000000
      4208    1       21.656408600000     146.629999980000      50.000000000000
      4209    3       11.812586510000     136.399999980000      50.000000000000
      4210    3       14.765733130000     138.104999980000      50.000000000000
      4211    3       11.812586510000     139.809999990000      50.000000000000
      4212    3       14.765733130000     141.514999980000      50.000000000000
      4213    3       11.812586510000     143.219999980000      50.000000000000
      4214    3       14.765733130000     144.924999980000      50.000000000000
      4215    3       11.812586510000     146.629999980000      50.000000000000
      4216    3       14.765733130000     148.334999990000      50.000000000000
      4217    3       17.718879760000     136.399999980000      50.000000000000
      4218    3       20.672026390000     138.104999980000      50.000000000000
      4219    3       17.718879760000     139.809999990000      50.000000000000
      4220    3       20.672026390000     141.514999980000      50.000000000000
      4221    3       17.718879760000     143.219999980000      50.000000000000
      4222    3       20.672026390000     144.924999980000      50.000000000000
      4223    3       17.718879760000     146.629999980000      50.000000000000
      4224    3       20.672026390000     148.334999990000      50.000000000000
      4225    2       24.609555220000     138.104999980000      50.000000000000
      4226    1       27.562701850000     136.399999980000      50.000000000000
      4227    2       24.609555220000     141.514999980000      50.000000000000
      4228    2       27.562701850000     139.809999990000      50.000000000000
      4229    2       24.609555220000     144.924999980000      50.000000000000
      4230    2       27.562701850000     143.219999980000      50.000000000000
      4231    2       24.609555220000     148.334999990000      50.000000000000
      4232    2       27.562701850000     146.629999980000      50.000000000000
      4233    2       30.515848480000     138.104999980000      50.000000000000
      4234    2       33.468995110000     136.399999980000      50.000000000000
      4235    2       30.515848480000     141.514999980000      50.000000000000
      4236    2       33.468995110000     139.809999990000      50.000000000000
      4237    2       30.515848480000     144.924999980000      50.000000000000
      4238    2       33.468995110000     143.219999980000      50.000000000000
      4239    2       30.515848480000     148.334999990000      50.000000000000
      4240    2       33.468995110000     146.629999980000      50.000000000000
      4241    3       23.625173020000     136.399999980000      50.000000000000
      4242    3       26.578319640000     138.104999980000      50.000000000000
      4243    3       23.625173020000     139.809999990000      50.000000000000
      4244    3       26.578319640000     141.514999980000      50.000000000000
      4245    3       23.625173020000     143.219999980000      50.000000000000
      4246    3       26.578319640000     144.924999980000      50.000000000000
      4247    3       23.625173020000     146.629999980000      50.000000000000
      4248    3       26.578319640000     148.334999990000      50.000000000000
      4249    3       29.531466270000     136.399999980000      50.000000000000
      4250    3       32.484612890000     138.104999980000      50.000000000000
      4251    3       29.531466270000     139.809999990000      50.000000000000
      4252    3       32.484612890000     141.514999980000      50.000000000000
      4253    3       29.531466270000     143.219999980000      50.000000000000
      4254    3       32.484612890000     144.924999980000      50.000000000000
      4255    3       29.531466270000     146.629999980000      50.000000000000
      4256    3       32.484612890000     148.334999990000      50.000000000000
      4257    2       36.422141730000     138.104999980000      50.000000000000
      4258    2       39.375288360000     136.399999980000      50.000000000000
      4259    2       36.422141730000     141.514999980000      50.000000000000
      4260    2       39.375288360000     139.809999990000      50.000000000000
      4261    2       36.422141730000     144.924999980000      50.000000000000
      4262    2       39.375288360000     143.219999980000      50.000000000000
      4263    2       36.422141730000     148.334999990000      50.000000000000
      4264    2       39.375288360000     146.629999980000      50.000000000000
      4265    2       42.328434990000     138.104999980000      50.000000000000
      4266    2       45.281581620000     136.399999980000      50.000000000000
      4267    2       42.328434990000     141.514999980000      50.000000000000
      4268    2       45.281581620000     139.809999990000      50.000000000000
      4269    2       42.328434990000     144.924999980000      50.000000000000
      4270    2       45.281581620000     143.219999980000      50.000000000000
      4271    2       42.328434990000     148.334999990000      50.000000000000
      4272    2       45.281581620000     146.629999980000      50.000000000000
      4273    3       35.437759530000     136.399999980000      50.000000000000
      4274    3       38.390906150000     138.104999980000      50.000000000000
      4275    3       35.437759530000     139.809999990000      50.000000000000
      4276    3       38.390906150000     141.514999980000      50.000000000000
      4277    3       35.437759530000     143.219999980000      50.000000000000
      4278    3       38.390906150000     144.924999980000      50.000000000000
      4279    3       35.437759530000     146.629999980000      50.000000000000
      4280    3       38.390906150000     148.334999990000      50.000000000000
      4281    3       41.344052780000     136.399999980000      50.000000000000
      4282    3       44.297199400000     138.104999980000      50.000000000000
      4283    3       41.344052780000     139.809999990000      50.000000000000
      4284    3       44.297199400000     141.514999980000      50.000000000000
      4285    3       41.344052780000     143.219999980000      50.000000000000
      4286    3       44.297199400000     144.924999980000      50.000000000000
      4287    3       41.344052780000     146.629999980000      50.000000000000
      4288    3       44.297199400000     148.334999990000      50.000000000000
      4289    2       48.234728240000     138.104999980000      50.000000000000
      4290    2       51.187874870000     136.399999980000      50.000000000000
      4291    1       48.234728240000     141.514999980000      50.000000000000
      4292    2       51.187874870000     139.809999990000      50.000000000000
      4293    2       48.234728240000     144.924999980000      50.000000000000
      4294    2       51.187874870000     143.219999980000      50.000000000000
      4295    1       48.234728240000     148.334999990000      50.000000000000
      4296    1       51.187874870000     146.629999980000      50.000000000000
      4297    2       54.141021490000     138.104999980000      50.000000000000
      4298    2       57.094168130000     136.399999980000      50.000000000000
      4299    1       54.141021490000     141.514999980000      50.000000000000
      4300    2       57.094168130000     139.809999990000      50.000000000000
      4301    2       54.141021490000     144.924999980000      50.000000000000
      4302    2       57.094168130000     143.219999980000      50.000000000000
      4303    2       54.141021490000     148.334999990000      50.000000000000
      4304    2       57.094168130000     146.629999980000      50.000000000000
      4305    3       47.250346040000     136.399999980000      50.000000000000
      4306    3       50.203492660000     138.104999980000      50.000000000000
      4307    3       47.250346040000     139.809999990000      50.000000000000
      4308    3       50.203492660000     141.514999980000      50.000000000000
      4309    3       47.250346040000     143.219999980000      50.000000000000
      4310    3       50.203492660000     144.924999980000      50.000000000000
      4311    3       47.250346040000     146.629999980000      50.000000000000
      4312    3       50.203492660000     148.334999990000      50.000000000000
      4313    3       53.156639290000     136.399999980000      50.000000000000
      4314    3       56.109785910000     138.104999980000      50.000000000000
      4315    3       53.156639290000     139.809999990000      50.000000000000
      4316    3       56.109785910000     141.514999980000      50.000000000000
      4317    3       53.156639290000     143.219999980000      50.000000000000
      4318    3       56.109785910000     144.924999980000      50.000000000000
      4319    3       53.156639290000     146.629999980000      50.000000000000
      4320    3       56.109785910000     148.334999990000      50.000000000000
      4321    2       60.047314750000     138.104999980000      50.000000000000
      4322    2       63.000461380000     136.399999980000      50.000000000000
      4323    1       60.047314750000     141.514999980000      50.000000000000
      4324    2       63.000461380000     139.809999990000      50.000000000000
      4325    2       60.047314750000     144.924999980000      50.000000000000
      4326    2       63.000461380000     143.219999980000      50.000000000000
      4327    2       60.047314750000     148.334999990000      50.000000000000
      4328    2       63.000461380000     146.629999980000      50.000000000000
      4329    2       65.953608000000     138.104999980000      50.000000000000
      4330    2       68.906754640000     136.399999980000      50.000000000000
      4331    2       65.953608000000     141.514999980000      50.000000000000
      4332    2       68.906754640000     139.809999990000      50.000000000000
      4333    2       65.953608000000     144.924999980000      50.000000000000
      4334    2       68.906754640000     143.219999980000      50.000000000000
      4335    2       65.953608000000     148.334999990000      50.000000000000
      4336    2       68.906754640000     146.629999980000      50.000000000000
      4337    3       59.062932550000     136.399999980000      50.000000000000
      4338    3       62.016079170000     138.104999980000      50.000000000000
      4339    3       59.062932550000     139.809999990000      50.000000000000
      4340    3       62.016079170000     141.514999980000      50.000000000000
      4341    3       59.062932550000     143.219999980000      50.000000000000
      4342    3       62.016079170000     144.924999980000      50.000000000000
      4343    3       59.062932550000     146.629999980000      50.000000000000
      4344    3       62.016079170000     148.334999990000      50.000000000000
      4345    3       64.969225800000     136.399999980000      50.000000000000
      4346    3       67.922372420000     138.104999980000      50.000000000000
      4347    3       64.969225800000     139.809999990000      50.000000000000
      4348    3       67.922372420000     141.514999980000      50.000000000000
      4349    3       64.969225800000     143.219999980000      50.000000000000
      4350    3       67.922372420000     144.924999980000      50.000000000000
      4351    3       64.969225800000     146.629999980000      50.000000000000
      4352    3       67.922372420000     148.334999990000      50.000000000000
      4353    2       71.859901260000     138.104999980000      50.000000000000
      4354    2       74.813047890000     136.399999980000      50.000000000000
      4355    2       71.859901260000     141.514999980000      50.000000000000
      4356    1       74.813047890000     139.809999990000      50.000000000000
      4357    2       71.859901260000     144.924999980000      50.000000000000
      4358    2       74.813047890000     143.219999980000      50.000000000000
      4359    2       71.859901260000     148.334999990000      50.000000000000
      4360    2       74.813047890000     146.629999980000      50.000000000000
      4361    2       77.766194510000     138.104999980000      50.000000000000
      4362    2       80.719341150000     136.399999980000      50.000000000000
      4363    1       77.766194510000     141.514999980000      50.000000000000
      4364    2       80.719341150000     139.809999990000      50.000000000000
      4365    2       77.766194510000     144.924999980000      50.000000000000
      4366    2       80.719341150000     143.219999980000      50.000000000000
      4367    2       77.766194510000     148.334999990000      50.000000000000
      4368    1       80.719341150000     146.629999980000      50.000000000000
      4369    3       70.875519050000     136.399999980000      50.000000000000
      4370    3       73.828665680000     138.104999980000      50.000000000000
      4371    3       70.875519050000     139.809999990000      50.000000000000
      4372    3       73.828665680000     141.514999980000      50.000000000000
      4373    3       70.875519050000     143.219999980000      50.000000000000
      4374    3       73.828665680000     144.924999980000      50.000000000000
      4375    3       70.875519050000     146.629999980000      50.000000000000
      4376    3       73.828665680000     148.334999990000      50.000000000000
      4377    3       76.781812310000     136.399999980000      50.000000000000
      4378    3       79.734958930000     138.104999980000      50.000000000000
      4379    3       76.781812310000     139.809999990000      50.000000000000
      4380    3       79.734958930000     141.514999980000      50.000000000000
      4381    3       76.781812310000     143.219999980000      50.000000000000
      4382    3       79.734958930000     144.924999980000      50.000000000000
      4383    3       76.781812310000     146.629999980000      50.000000000000
      4384    3       79.734958930000     148.334999990000      50.000000000000
      4385    2       83.672487770000     138.104999980000      50.000000000000
      4386    2       86.625634400000     136.399999980000      50.000000000000
      4387    2       83.672487770000     141.514999980000      50.000000000000
      4388    2       86.625634400000     139.809999990000      50.000000000000
      4389    2       83.672487770000     144.924999980000      50.000000000000
      4390    2       86.625634400000     143.219999980000      50.000000000000
      4391    2       83.672487770000     148.334999990000      50.000000000000
      4392    2       86.625634400000     146.629999980000      50.000000000000
      4393    2       89.578781020000     138.104999980000      50.000000000000
      4394    1       92.531927650000     136.399999980000      50.000000000000
      4395    2       89.578781020000     141.514999980000      50.000000000000
      4396    2       92.531927650000     139.809999990000      50.000000000000
      4397    2       89.578781020000     144.924999980000      50.000000000000
      4398    2       92.531927650000     143.219999980000      50.000000000000
      4399    2       89.578781020000     148.334999990000      50.000000000000
      4400    2       92.531927650000     146.629999980000      50.000000000000
      4401    3       82.688105560000     136.399999980000      50.000000000000
      4402    3       85.641252190000     138.104999980000      50.000000000000
      4403    3       82.688105560000     139.809999990000      50.000000000000
      4404    3       85.641252190000     141.514999980000      50.000000000000
      4405    3       82.688105560000     143.219999980000      50.000000000000
      4406    3       85.641252190000     144.924999980000      50.000000000000
      4407    3       82.688105560000     146.629999980000      50.000000000000
      4408    3       85.641252190000     148.334999990000      50.000000000000
      4409    3       88.594398820000     136.399999980000      50.000000000000
      4410    3       91.547545440000     138.104999980000      50.000000000000
      4411    3       88.594398820000     139.809999990000      50.000000000000
      4412    3       91.547545440000     141.514999980000      50.000000000000
      4413    3       88.594398820000     143.219999980000      50.000000000000
      4414    3       91.547545440000     144.924999980000      50.000000000000
      4415    3       88.594398820000     146.629999980000      50.000000000000
      4416    3       91.547545440000     148.334999990000      50.000000000000
      4417    2       95.485074280000     138.104999980000      50.000000000000
      4418    2       98.438220910000     136.399999980000      50.000000000000
      4419    1       95.485074280000     141.514999980000      50.000000000000
      4420    1       98.438220910000     139.809999990000      50.000000000000
      4421    1       95.485074280000     144.924999980000      50.000000000000
      4422    2       98.438220910000     143.219999980000      50.000000000000
      4423    2       95.485074280000     148.334999990000      50.000000000000
      4424    2       98.438220910000     146.629999980000      50.000000000000
      4425    2      101.391367530000     138.104999980000      50.000000000000
      4426    2      104.344514160000     136.399999980000      50.000000000000
      4427    2      101.391367530000     141.514999980000      50.000000000000
      4428    2      104.344514160000     139.809999990000      50.000000000000
      4429    1      101.391367530000     144.924999980000      50.000000000000
      4430    2      104.344514160000     143.219999980000      50.000000000000
      4431    2      101.391367530000     148.334999990000      50.000000000000
      4432    2      104.344514160000     146.629999980000      50.000000000000
      4433    3       94.500692070000     136.399999980000      50.000000000000
      4434    3       97.453838690000     138.104999980000      50.000000000000
      4435    3       94.500692070000     139.809999990000      50.000000000000
      4436    3       97.453838690000     141.514999980000      50.000000000000
      4437    3       94.500692070000     143.219999980000      50.000000000000
      4438    3       97.453838690000     144.924999980000      50.000000000000
      4439    3       94.500692070000     146.629999980000      50.000000000000
      4440    3       97.453838690000     148.334999990000      50.000000000000
      4441    3      100.406985330000     136.399999980000      50.000000000000
      4442    3      103.360131950000     138.104999980000      50.000000000000
      4443    3      100.406985330000     139.809999990000      50.000000000000
      4444    3      103.360131950000     141.514999980000      50.000000000000
      4445    3      100.406985330000     143.219999980000      50.000000000000
      4446    3      103.360131950000     144.924999980000      50.000000000000
      4447    3      100.406985330000     146.629999980000      50.000000000000
      4448    3      103.360131950000     148.334999990000      50.000000000000
      4449    2      107.297660790000     138.104999980000      50.000000000000
      4450    2      110.250807420000     136.399999980000      50.000000000000
      4451    2      107.297660790000     141.514999980000      50.000000000000
      4452    2      110.250807420000     139.809999990000      50.000000000000
      4453    1      107.297660790000     144.924999980000      50.000000000000
      4454    2      110.250807420000     143.219999980000      50.000000000000
      4455    2      107.297660790000     148.334999990000      50.000000000000
      4456    2      110.250807420000     146.629999980000      50.000000000000
      4457    2      113.203954040000     138.104999980000      50.000000000000
      4458    2      116.157100670000     136.399999980000      50.000000000000
      4459    2      113.203954040000     141.514999980000      50.000000000000
      4460    2      116.157100670000     139.809999990000      50.000000000000
      4461    2      113.203954040000     144.924999980000      50.000000000000
      4462    2      116.157100670000     143.219999980000      50.000000000000
      4463    2      113.203954040000     148.334999990000      50.000000000000
      4464    2      116.157100670000     146.629999980000      50.000000000000
      4465    3      106.313278580000     136.399999980000      50.000000000000
      4466    3      109.266425200000     138.104999980000      50.000000000000
      4467    3      106.313278580000     139.809999990000      50.000000000000
      4468    3      109.266425200000     141.514999980000      50.000000000000
      4469    3      106.313278580000     143.219999980000      50.000000000000
      4470    3      109.266425200000     144.924999980000      50.000000000000
      4471    3      106.313278580000     146.629999980000      50.000000000000
      4472    3      109.266425200000     148.334999990000      50.000000000000
      4473    3      112.219571840000     136.399999980000      50.000000000000
      4474    3      115.172718460000     138.104999980000      50.000000000000
      4475    3      112.219571840000     139.809999990000      50.000000000000
      4476    3      115.172718460000     141.514999980000      50.000000000000
      4477    3      112.219571840000     143.219999980000      50.000000000000
      4478    3      115.172718460000     144.924999980000      50.000000000000
      4479    3      112.219571840000     146.629999980000      50.000000000000
      4480    3      115.172718460000     148.334999990000      50.000000000000
      4481    2      119.110247290000     138.104999980000      50.000000000000
      4482    2      122.063393930000     136.399999980000      50.000000000000
      4483    2      119.110247290000     141.514999980000      50.000000000000
      4484    2      122.063393930000     139.809999990000      50.000000000000
      4485    2      119.110247290000     144.924999980000      50.000000000000
      4486    2      122.063393930000     143.219999980000      50.000000000000
      4487    2      119.110247290000     148.334999990000      50.000000000000
      4488    2      122.063393930000     146.629999980000      50.000000000000
      4489    2      125.016540550000     138.104999980000      50.000000000000
      4490    2      127.969687180000     136.399999980000      50.000000000000
      4491    2      125.016540550000     141.514999980000      50.000000000000
      4492    2      127.969687180000     139.809999990000      50.000000000000
      4493    2      125.016540550000     144.924999980000      50.000000000000
      4494    2      127.969687180000     143.219999980000      50.000000000000
      4495    2      125.016540550000     148.334999990000      50.000000000000
      4496    2      127.969687180000     146.629999980000      50.000000000000
      4497    3      118.125865090000     136.399999980000      50.000000000000
      4498    3      121.079011710000     138.104999980000      50.000000000000
      4499    3      118.125865090000     139.809999990000      50.000000000000
      4500    3      121.079011710000     141.514999980000      50.000000000000
      4501    3      118.125865090000     143.219999980000      50.000000000000
      4502    3      121.079011710000     144.924999980000      50.000000000000
      4503    3      118.125865090000     146.629999980000      50.000000000000
      4504    3      121.079011710000     148.334999990000      50.000000000000
      4505    3      124.032158350000     136.399999980000      50.000000000000
      4506    3      126.985304970000     138.104999980000      50.000000000000
      4507    3      124.032158350000     139.809999990000      50.000000000000
      4508    3      126.985304970000     141.514999980000      50.000000000000
      4509    3      124.032158350000     143.219999980000      50.000000000000
      4510    3      126.985304970000     144.924999980000      50.000000000000
      4511    3      124.032158350000     146.629999980000      50.000000000000
      4512    3      126.985304970000     148.334999990000      50.000000000000
      4513    2      130.922833800000     138.104999980000      50.000000000000
      4514    2      133.875980440000     136.399999980000      50.000000000000
      4515    2      130.922833800000     141.514999980000      50.000000000000
      4516    2      133.875980440000     139.809999990000      50.000000000000
      4517    2      130.922833800000     144.924999980000      50.000000000000
      4518    2      133.875980440000     143.219999980000      50.000000000000
      4519    2      130.922833800000     148.334999990000      50.000000000000
      4520    2      133.875980440000     146.629999980000      50.000000000000
      4521    2      136.829127060000     138.104999980000      50.000000000000
      4522    2      139.782273690000     136.399999980000      50.000000000000
      4523    2      136.829127060000     141.514999980000      50.000000000000
      4524    2      139.782273690000     139.809999990000      50.000000000000
      4525    2      136.829127060000     144.924999980000      50.000000000000
      4526    2      139.782273690000     143.219999980000      50.000000000000
      4527    2      136.829127060000     148.334999990000      50.000000000000
      4528    2      139.782273690000     146.629999980000      50.000000000000
      4529    3      129.938451600000     136.399999980000      50.000000000000
      4530    3      132.891598220000     138.104999980000      50.000000000000
      4531    3      129.938451600000     139.809999990000      50.000000000000
      4532    3      132.891598220000     141.514999980000      50.000000000000
      4533    3      129.938451600000     143.219999980000      50.000000000000
      4534    3      132.891598220000     144.924999980000      50.000000000000
      4535    3      129.938451600000     146.629999980000      50.000000000000
      4536    3      132.891598220000     148.334999990000      50.000000000000
      4537    3      135.844744850000     136.399999980000      50.000000000000
      4538    3      138.797891480000     138.104999980000      50.000000000000
      4539    3      135.844744850000     139.809999990000      50.000000000000
      4540    3      138.797891480000     141.514999980000      50.000000000000
      4541    3      135.844744850000     143.219999980000      50.000000000000
      4542    3      138.797891480000     144.924999980000      50.000000000000
      4543    3      135.844744850000     146.629999980000      50.000000000000
      4544    3      138.797891480000     148.334999990000      50.000000000000
      4545    2      142.735420310000     138.104999980000      50.000000000000
      4546    2      145.688566950000     136.399999980000      50.000000000000
      4547    1      142.735420310000     141.514999980000      50.000000000000
      4548    2      145.688566950000     139.809999990000      50.000000000000
      4549    2      142.735420310000     144.924999980000      50.000000000000
      4550    2      145.688566950000     143.219999980000      50.000000000000
      4551    2      142.735420310000     148.334999990000      50.000000000000
      4552    2      145.688566950000     146.629999980000      50.000000000000
      4553    2      148.641713570000     138.104999980000      50.000000000000
      4554    2      151.594860200000     136.399999980000      50.000000000000
      4555    2      148.641713570000     141.514999980000      50.000000000000
      4556    2      151.594860200000     139.809999990000      50.000000000000
      4557    2      148.641713570000     144.924999980000      50.000000000000
      4558    2      151.594860200000     143.219999980000      50.000000000000
      4559    2      148.641713570000     148.334999990000      50.000000000000
      4560    2      151.594860200000     146.629999980000      50.000000000000
      4561    3      141.751038110000     136.399999980000      50.000000000000
      4562    3      144.704184730000     138.104999980000      50.000000000000
      4563    3      141.751038110000     139.809999990000      50.000000000000
      4564    3      144.704184730000     141.514999980000      50.000000000000
      4565    3      141.751038110000     143.219999980000      50.000000000000
      4566    3      144.704184730000     144.924999980000      50.000000000000
      4567    3      141.751038110000     146.629999980000      50.000000000000
      4568    3      144.704184730000     148.334999990000      50.000000000000
      4569    3      147.657331360000     136.399999980000      50.000000000000
      4570    3      150.610477990000     138.104999980000      50.000000000000
      4571    3      147.657331360000     139.809999990000      50.000000000000
      4572    3      150.610477990000     141.514999980000      50.000000000000
      4573    3      147.657331360000     143.219999980000      50.000000000000
      4574    3      150.610477990000     144.924999980000      50.000000000000
      4575    3      147.657331360000     146.629999980000      50.000000000000
      4576    3      150.610477990000     148.334999990000      50.000000000000
