 # Lammps sturcture data file
  
        4576  atoms
           2  atom types
 
      0.000000000000     153.563624617871  xlo xhi
      0.000000000000     150.039999981608  ylo yhi
      0.000000000000     100.000000000000  zlo zhi
 
Masses
 
            1   26.98153860             # Al
            2   14.00700000             # N
 
Atoms # atomic
 
         1    1        0.984382203622       1.704999995691      50.000000000000
         2    1        3.937528836356       0.000000000000      50.000000000000
         3    1        0.984382203622       5.114999998006      50.000000000000
         4    1        3.937528836356       3.410000002316      50.000000000000
         5    1        0.984382203622       8.525000000322      50.000000000000
         6    1        3.937528836356       6.819999993697      50.000000000000
         7    1        0.984382203622      11.935000002638      50.000000000000
         8    1        3.937528836356      10.229999996013      50.000000000000
         9    1        6.890675458156       1.704999995691      50.000000000000
        10    1        9.843822090889       0.000000000000      50.000000000000
        11    1        6.890675458156       5.114999998006      50.000000000000
        12    1        9.843822090889       3.410000002316      50.000000000000
        13    1        6.890675458156       8.525000000322      50.000000000000
        14    1        9.843822090889       6.819999993697      50.000000000000
        15    1        6.890675458156      11.935000002638      50.000000000000
        16    1        9.843822090889      10.229999996013      50.000000000000
        17    2        0.000000000000       0.000000000000      50.000000000000
        18    2        2.953146621800       1.704999995691      50.000000000000
        19    2        0.000000000000       3.410000002316      50.000000000000
        20    2        2.953146621800       5.114999998006      50.000000000000
        21    2        0.000000000000       6.819999993697      50.000000000000
        22    2        2.953146621800       8.525000000322      50.000000000000
        23    2        0.000000000000      10.229999996013      50.000000000000
        24    2        2.953146621800      11.935000002638      50.000000000000
        25    2        5.906293254534       0.000000000000      50.000000000000
        26    2        8.859439876334       1.704999995691      50.000000000000
        27    2        5.906293254534       3.410000002316      50.000000000000
        28    2        8.859439876334       5.114999998006      50.000000000000
        29    2        5.906293254534       6.819999993697      50.000000000000
        30    2        8.859439876334       8.525000000322      50.000000000000
        31    2        5.906293254534      10.229999996013      50.000000000000
        32    2        8.859439876334      11.935000002638      50.000000000000
        33    1       12.796968712689       1.704999995691      50.000000000000
        34    1       15.750115345423       0.000000000000      50.000000000000
        35    1       12.796968712689       5.114999998006      50.000000000000
        36    1       15.750115345423       3.410000002316      50.000000000000
        37    1       12.796968712689       8.525000000322      50.000000000000
        38    1       15.750115345423       6.819999993697      50.000000000000
        39    1       12.796968712689      11.935000002638      50.000000000000
        40    1       15.750115345423      10.229999996013      50.000000000000
        41    1       18.703261967223       1.704999995691      50.000000000000
        42    1       21.656408599956       0.000000000000      50.000000000000
        43    1       18.703261967223       5.114999998006      50.000000000000
        44    1       21.656408599956       3.410000002316      50.000000000000
        45    1       18.703261967223       8.525000000322      50.000000000000
        46    1       21.656408599956       6.819999993697      50.000000000000
        47    1       18.703261967223      11.935000002638      50.000000000000
        48    1       21.656408599956      10.229999996013      50.000000000000
        49    2       11.812586509067       0.000000000000      50.000000000000
        50    2       14.765733130867       1.704999995691      50.000000000000
        51    2       11.812586509067       3.410000002316      50.000000000000
        52    2       14.765733130867       5.114999998006      50.000000000000
        53    2       11.812586509067       6.819999993697      50.000000000000
        54    2       14.765733130867       8.525000000322      50.000000000000
        55    2       11.812586509067      10.229999996013      50.000000000000
        56    2       14.765733130867      11.935000002638      50.000000000000
        57    2       17.718879763601       0.000000000000      50.000000000000
        58    2       20.672026385401       1.704999995691      50.000000000000
        59    2       17.718879763601       3.410000002316      50.000000000000
        60    2       20.672026385401       5.114999998006      50.000000000000
        61    2       17.718879763601       6.819999993697      50.000000000000
        62    2       20.672026385401       8.525000000322      50.000000000000
        63    2       17.718879763601      10.229999996013      50.000000000000
        64    2       20.672026385401      11.935000002638      50.000000000000
        65    1       24.609555221756       1.704999995691      50.000000000000
        66    1       27.562701854490       0.000000000000      50.000000000000
        67    1       24.609555221756       5.114999998006      50.000000000000
        68    1       27.562701854490       3.410000002316      50.000000000000
        69    1       24.609555221756       8.525000000322      50.000000000000
        70    1       27.562701854490       6.819999993697      50.000000000000
        71    1       24.609555221756      11.935000002638      50.000000000000
        72    1       27.562701854490      10.229999996013      50.000000000000
        73    1       30.515848476290       1.704999995691      50.000000000000
        74    1       33.468995109023       0.000000000000      50.000000000000
        75    1       30.515848476290       5.114999998006      50.000000000000
        76    1       33.468995109023       3.410000002316      50.000000000000
        77    1       30.515848476290       8.525000000322      50.000000000000
        78    1       33.468995109023       6.819999993697      50.000000000000
        79    1       30.515848476290      11.935000002638      50.000000000000
        80    1       33.468995109023      10.229999996013      50.000000000000
        81    2       23.625173018134       0.000000000000      50.000000000000
        82    2       26.578319639934       1.704999995691      50.000000000000
        83    2       23.625173018134       3.410000002316      50.000000000000
        84    2       26.578319639934       5.114999998006      50.000000000000
        85    2       23.625173018134       6.819999993697      50.000000000000
        86    2       26.578319639934       8.525000000322      50.000000000000
        87    2       23.625173018134      10.229999996013      50.000000000000
        88    2       26.578319639934      11.935000002638      50.000000000000
        89    2       29.531466272668       0.000000000000      50.000000000000
        90    2       32.484612894468       1.704999995691      50.000000000000
        91    2       29.531466272668       3.410000002316      50.000000000000
        92    2       32.484612894468       5.114999998006      50.000000000000
        93    2       29.531466272668       6.819999993697      50.000000000000
        94    2       32.484612894468       8.525000000322      50.000000000000
        95    2       29.531466272668      10.229999996013      50.000000000000
        96    2       32.484612894468      11.935000002638      50.000000000000
        97    1       36.422141730823       1.704999995691      50.000000000000
        98    1       39.375288363557       0.000000000000      50.000000000000
        99    1       36.422141730823       5.114999998006      50.000000000000
       100    1       39.375288363557       3.410000002316      50.000000000000
       101    1       36.422141730823       8.525000000322      50.000000000000
       102    1       39.375288363557       6.819999993697      50.000000000000
       103    1       36.422141730823      11.935000002638      50.000000000000
       104    1       39.375288363557      10.229999996013      50.000000000000
       105    1       42.328434985357       1.704999995691      50.000000000000
       106    1       45.281581618090       0.000000000000      50.000000000000
       107    1       42.328434985357       5.114999998006      50.000000000000
       108    1       45.281581618090       3.410000002316      50.000000000000
       109    1       42.328434985357       8.525000000322      50.000000000000
       110    1       45.281581618090       6.819999993697      50.000000000000
       111    1       42.328434985357      11.935000002638      50.000000000000
       112    1       45.281581618090      10.229999996013      50.000000000000
       113    2       35.437759527201       0.000000000000      50.000000000000
       114    2       38.390906149001       1.704999995691      50.000000000000
       115    2       35.437759527201       3.410000002316      50.000000000000
       116    2       38.390906149001       5.114999998006      50.000000000000
       117    2       35.437759527201       6.819999993697      50.000000000000
       118    2       38.390906149001       8.525000000322      50.000000000000
       119    2       35.437759527201      10.229999996013      50.000000000000
       120    2       38.390906149001      11.935000002638      50.000000000000
       121    2       41.344052781735       0.000000000000      50.000000000000
       122    2       44.297199403535       1.704999995691      50.000000000000
       123    2       41.344052781735       3.410000002316      50.000000000000
       124    2       44.297199403535       5.114999998006      50.000000000000
       125    2       41.344052781735       6.819999993697      50.000000000000
       126    2       44.297199403535       8.525000000322      50.000000000000
       127    2       41.344052781735      10.229999996013      50.000000000000
       128    2       44.297199403535      11.935000002638      50.000000000000
       129    1       48.234728239890       1.704999995691      50.000000000000
       130    1       51.187874872624       0.000000000000      50.000000000000
       131    1       48.234728239890       5.114999998006      50.000000000000
       132    1       51.187874872624       3.410000002316      50.000000000000
       133    1       48.234728239890       8.525000000322      50.000000000000
       134    1       51.187874872624       6.819999993697      50.000000000000
       135    1       48.234728239890      11.935000002638      50.000000000000
       136    1       51.187874872624      10.229999996013      50.000000000000
       137    1       54.141021494424       1.704999995691      50.000000000000
       138    1       57.094168127157       0.000000000000      50.000000000000
       139    1       54.141021494424       5.114999998006      50.000000000000
       140    1       57.094168127157       3.410000002316      50.000000000000
       141    1       54.141021494424       8.525000000322      50.000000000000
       142    1       57.094168127157       6.819999993697      50.000000000000
       143    1       54.141021494424      11.935000002638      50.000000000000
       144    1       57.094168127157      10.229999996013      50.000000000000
       145    2       47.250346036268       0.000000000000      50.000000000000
       146    2       50.203492658068       1.704999995691      50.000000000000
       147    2       47.250346036268       3.410000002316      50.000000000000
       148    2       50.203492658068       5.114999998006      50.000000000000
       149    2       47.250346036268       6.819999993697      50.000000000000
       150    2       50.203492658068       8.525000000322      50.000000000000
       151    2       47.250346036268      10.229999996013      50.000000000000
       152    2       50.203492658068      11.935000002638      50.000000000000
       153    2       53.156639290802       0.000000000000      50.000000000000
       154    2       56.109785912602       1.704999995691      50.000000000000
       155    2       53.156639290802       3.410000002316      50.000000000000
       156    2       56.109785912602       5.114999998006      50.000000000000
       157    2       53.156639290802       6.819999993697      50.000000000000
       158    2       56.109785912602       8.525000000322      50.000000000000
       159    2       53.156639290802      10.229999996013      50.000000000000
       160    2       56.109785912602      11.935000002638      50.000000000000
       161    1       60.047314748957       1.704999995691      50.000000000000
       162    1       63.000461381691       0.000000000000      50.000000000000
       163    1       60.047314748957       5.114999998006      50.000000000000
       164    1       63.000461381691       3.410000002316      50.000000000000
       165    1       60.047314748957       8.525000000322      50.000000000000
       166    1       63.000461381691       6.819999993697      50.000000000000
       167    1       60.047314748957      11.935000002638      50.000000000000
       168    1       63.000461381691      10.229999996013      50.000000000000
       169    1       65.953608003491       1.704999995691      50.000000000000
       170    1       68.906754636224       0.000000000000      50.000000000000
       171    1       65.953608003491       5.114999998006      50.000000000000
       172    1       68.906754636224       3.410000002316      50.000000000000
       173    1       65.953608003491       8.525000000322      50.000000000000
       174    1       68.906754636224       6.819999993697      50.000000000000
       175    1       65.953608003491      11.935000002638      50.000000000000
       176    1       68.906754636224      10.229999996013      50.000000000000
       177    2       59.062932545335       0.000000000000      50.000000000000
       178    2       62.016079167135       1.704999995691      50.000000000000
       179    2       59.062932545335       3.410000002316      50.000000000000
       180    2       62.016079167135       5.114999998006      50.000000000000
       181    2       59.062932545335       6.819999993697      50.000000000000
       182    2       62.016079167135       8.525000000322      50.000000000000
       183    2       59.062932545335      10.229999996013      50.000000000000
       184    2       62.016079167135      11.935000002638      50.000000000000
       185    2       64.969225799869       0.000000000000      50.000000000000
       186    2       67.922372421669       1.704999995691      50.000000000000
       187    2       64.969225799869       3.410000002316      50.000000000000
       188    2       67.922372421669       5.114999998006      50.000000000000
       189    2       64.969225799869       6.819999993697      50.000000000000
       190    2       67.922372421669       8.525000000322      50.000000000000
       191    2       64.969225799869      10.229999996013      50.000000000000
       192    2       67.922372421669      11.935000002638      50.000000000000
       193    1       71.859901258024       1.704999995691      50.000000000000
       194    1       74.813047890758       0.000000000000      50.000000000000
       195    1       71.859901258024       5.114999998006      50.000000000000
       196    1       74.813047890758       3.410000002316      50.000000000000
       197    1       71.859901258024       8.525000000322      50.000000000000
       198    1       74.813047890758       6.819999993697      50.000000000000
       199    1       71.859901258024      11.935000002638      50.000000000000
       200    1       74.813047890758      10.229999996013      50.000000000000
       201    1       77.766194512558       1.704999995691      50.000000000000
       202    1       80.719341145291       0.000000000000      50.000000000000
       203    1       77.766194512558       5.114999998006      50.000000000000
       204    1       80.719341145291       3.410000002316      50.000000000000
       205    1       77.766194512558       8.525000000322      50.000000000000
       206    1       80.719341145291       6.819999993697      50.000000000000
       207    1       77.766194512558      11.935000002638      50.000000000000
       208    1       80.719341145291      10.229999996013      50.000000000000
       209    2       70.875519054402       0.000000000000      50.000000000000
       210    2       73.828665676202       1.704999995691      50.000000000000
       211    2       70.875519054402       3.410000002316      50.000000000000
       212    2       73.828665676202       5.114999998006      50.000000000000
       213    2       70.875519054402       6.819999993697      50.000000000000
       214    2       73.828665676202       8.525000000322      50.000000000000
       215    2       70.875519054402      10.229999996013      50.000000000000
       216    2       73.828665676202      11.935000002638      50.000000000000
       217    2       76.781812308936       0.000000000000      50.000000000000
       218    2       79.734958930736       1.704999995691      50.000000000000
       219    2       76.781812308936       3.410000002316      50.000000000000
       220    2       79.734958930736       5.114999998006      50.000000000000
       221    2       76.781812308936       6.819999993697      50.000000000000
       222    2       79.734958930736       8.525000000322      50.000000000000
       223    2       76.781812308936      10.229999996013      50.000000000000
       224    2       79.734958930736      11.935000002638      50.000000000000
       225    1       83.672487767091       1.704999995691      50.000000000000
       226    1       86.625634399825       0.000000000000      50.000000000000
       227    1       83.672487767091       5.114999998006      50.000000000000
       228    1       86.625634399825       3.410000002316      50.000000000000
       229    1       83.672487767091       8.525000000322      50.000000000000
       230    1       86.625634399825       6.819999993697      50.000000000000
       231    1       83.672487767091      11.935000002638      50.000000000000
       232    1       86.625634399825      10.229999996013      50.000000000000
       233    1       89.578781021625       1.704999995691      50.000000000000
       234    1       92.531927654358       0.000000000000      50.000000000000
       235    1       89.578781021625       5.114999998006      50.000000000000
       236    1       92.531927654358       3.410000002316      50.000000000000
       237    1       89.578781021625       8.525000000322      50.000000000000
       238    1       92.531927654358       6.819999993697      50.000000000000
       239    1       89.578781021625      11.935000002638      50.000000000000
       240    1       92.531927654358      10.229999996013      50.000000000000
       241    2       82.688105563469       0.000000000000      50.000000000000
       242    2       85.641252185269       1.704999995691      50.000000000000
       243    2       82.688105563469       3.410000002316      50.000000000000
       244    2       85.641252185269       5.114999998006      50.000000000000
       245    2       82.688105563469       6.819999993697      50.000000000000
       246    2       85.641252185269       8.525000000322      50.000000000000
       247    2       82.688105563469      10.229999996013      50.000000000000
       248    2       85.641252185269      11.935000002638      50.000000000000
       249    2       88.594398818003       0.000000000000      50.000000000000
       250    2       91.547545439803       1.704999995691      50.000000000000
       251    2       88.594398818003       3.410000002316      50.000000000000
       252    2       91.547545439803       5.114999998006      50.000000000000
       253    2       88.594398818003       6.819999993697      50.000000000000
       254    2       91.547545439803       8.525000000322      50.000000000000
       255    2       88.594398818003      10.229999996013      50.000000000000
       256    2       91.547545439803      11.935000002638      50.000000000000
       257    1       95.485074276158       1.704999995691      50.000000000000
       258    1       98.438220908892       0.000000000000      50.000000000000
       259    1       95.485074276158       5.114999998006      50.000000000000
       260    1       98.438220908892       3.410000002316      50.000000000000
       261    1       95.485074276158       8.525000000322      50.000000000000
       262    1       98.438220908892       6.819999993697      50.000000000000
       263    1       95.485074276158      11.935000002638      50.000000000000
       264    1       98.438220908892      10.229999996013      50.000000000000
       265    1      101.391367530692       1.704999995691      50.000000000000
       266    1      104.344514163425       0.000000000000      50.000000000000
       267    1      101.391367530692       5.114999998006      50.000000000000
       268    1      104.344514163425       3.410000002316      50.000000000000
       269    1      101.391367530692       8.525000000322      50.000000000000
       270    1      104.344514163425       6.819999993697      50.000000000000
       271    1      101.391367530692      11.935000002638      50.000000000000
       272    1      104.344514163425      10.229999996013      50.000000000000
       273    2       94.500692072536       0.000000000000      50.000000000000
       274    2       97.453838694336       1.704999995691      50.000000000000
       275    2       94.500692072536       3.410000002316      50.000000000000
       276    2       97.453838694336       5.114999998006      50.000000000000
       277    2       94.500692072536       6.819999993697      50.000000000000
       278    2       97.453838694336       8.525000000322      50.000000000000
       279    2       94.500692072536      10.229999996013      50.000000000000
       280    2       97.453838694336      11.935000002638      50.000000000000
       281    2      100.406985327070       0.000000000000      50.000000000000
       282    2      103.360131948870       1.704999995691      50.000000000000
       283    2      100.406985327070       3.410000002316      50.000000000000
       284    2      103.360131948870       5.114999998006      50.000000000000
       285    2      100.406985327070       6.819999993697      50.000000000000
       286    2      103.360131948870       8.525000000322      50.000000000000
       287    2      100.406985327070      10.229999996013      50.000000000000
       288    2      103.360131948870      11.935000002638      50.000000000000
       289    1      107.297660785225       1.704999995691      50.000000000000
       290    1      110.250807417959       0.000000000000      50.000000000000
       291    1      107.297660785225       5.114999998006      50.000000000000
       292    1      110.250807417959       3.410000002316      50.000000000000
       293    1      107.297660785225       8.525000000322      50.000000000000
       294    1      110.250807417959       6.819999993697      50.000000000000
       295    1      107.297660785225      11.935000002638      50.000000000000
       296    1      110.250807417959      10.229999996013      50.000000000000
       297    1      113.203954039759       1.704999995691      50.000000000000
       298    1      116.157100672492       0.000000000000      50.000000000000
       299    1      113.203954039759       5.114999998006      50.000000000000
       300    1      116.157100672492       3.410000002316      50.000000000000
       301    1      113.203954039759       8.525000000322      50.000000000000
       302    1      116.157100672492       6.819999993697      50.000000000000
       303    1      113.203954039759      11.935000002638      50.000000000000
       304    1      116.157100672492      10.229999996013      50.000000000000
       305    2      106.313278581603       0.000000000000      50.000000000000
       306    2      109.266425203403       1.704999995691      50.000000000000
       307    2      106.313278581603       3.410000002316      50.000000000000
       308    2      109.266425203403       5.114999998006      50.000000000000
       309    2      106.313278581603       6.819999993697      50.000000000000
       310    2      109.266425203403       8.525000000322      50.000000000000
       311    2      106.313278581603      10.229999996013      50.000000000000
       312    2      109.266425203403      11.935000002638      50.000000000000
       313    2      112.219571836137       0.000000000000      50.000000000000
       314    2      115.172718457937       1.704999995691      50.000000000000
       315    2      112.219571836137       3.410000002316      50.000000000000
       316    2      115.172718457937       5.114999998006      50.000000000000
       317    2      112.219571836137       6.819999993697      50.000000000000
       318    2      115.172718457937       8.525000000322      50.000000000000
       319    2      112.219571836137      10.229999996013      50.000000000000
       320    2      115.172718457937      11.935000002638      50.000000000000
       321    1      119.110247294292       1.704999995691      50.000000000000
       322    1      122.063393927026       0.000000000000      50.000000000000
       323    1      119.110247294292       5.114999998006      50.000000000000
       324    1      122.063393927026       3.410000002316      50.000000000000
       325    1      119.110247294292       8.525000000322      50.000000000000
       326    1      122.063393927026       6.819999993697      50.000000000000
       327    1      119.110247294292      11.935000002638      50.000000000000
       328    1      122.063393927026      10.229999996013      50.000000000000
       329    1      125.016540548826       1.704999995691      50.000000000000
       330    1      127.969687181559       0.000000000000      50.000000000000
       331    1      125.016540548826       5.114999998006      50.000000000000
       332    1      127.969687181559       3.410000002316      50.000000000000
       333    1      125.016540548826       8.525000000322      50.000000000000
       334    1      127.969687181559       6.819999993697      50.000000000000
       335    1      125.016540548826      11.935000002638      50.000000000000
       336    1      127.969687181559      10.229999996013      50.000000000000
       337    2      118.125865090670       0.000000000000      50.000000000000
       338    2      121.079011712470       1.704999995691      50.000000000000
       339    2      118.125865090670       3.410000002316      50.000000000000
       340    2      121.079011712470       5.114999998006      50.000000000000
       341    2      118.125865090670       6.819999993697      50.000000000000
       342    2      121.079011712470       8.525000000322      50.000000000000
       343    2      118.125865090670      10.229999996013      50.000000000000
       344    2      121.079011712470      11.935000002638      50.000000000000
       345    2      124.032158345204       0.000000000000      50.000000000000
       346    2      126.985304967004       1.704999995691      50.000000000000
       347    2      124.032158345204       3.410000002316      50.000000000000
       348    2      126.985304967004       5.114999998006      50.000000000000
       349    2      124.032158345204       6.819999993697      50.000000000000
       350    2      126.985304967004       8.525000000322      50.000000000000
       351    2      124.032158345204      10.229999996013      50.000000000000
       352    2      126.985304967004      11.935000002638      50.000000000000
       353    1      130.922833803359       1.704999995691      50.000000000000
       354    1      133.875980436093       0.000000000000      50.000000000000
       355    1      130.922833803359       5.114999998006      50.000000000000
       356    1      133.875980436093       3.410000002316      50.000000000000
       357    1      130.922833803359       8.525000000322      50.000000000000
       358    1      133.875980436093       6.819999993697      50.000000000000
       359    1      130.922833803359      11.935000002638      50.000000000000
       360    1      133.875980436093      10.229999996013      50.000000000000
       361    1      136.829127057893       1.704999995691      50.000000000000
       362    1      139.782273690626       0.000000000000      50.000000000000
       363    1      136.829127057893       5.114999998006      50.000000000000
       364    1      139.782273690626       3.410000002316      50.000000000000
       365    1      136.829127057893       8.525000000322      50.000000000000
       366    1      139.782273690626       6.819999993697      50.000000000000
       367    1      136.829127057893      11.935000002638      50.000000000000
       368    1      139.782273690626      10.229999996013      50.000000000000
       369    2      129.938451599737       0.000000000000      50.000000000000
       370    2      132.891598221537       1.704999995691      50.000000000000
       371    2      129.938451599737       3.410000002316      50.000000000000
       372    2      132.891598221537       5.114999998006      50.000000000000
       373    2      129.938451599737       6.819999993697      50.000000000000
       374    2      132.891598221537       8.525000000322      50.000000000000
       375    2      129.938451599737      10.229999996013      50.000000000000
       376    2      132.891598221537      11.935000002638      50.000000000000
       377    2      135.844744854271       0.000000000000      50.000000000000
       378    2      138.797891476071       1.704999995691      50.000000000000
       379    2      135.844744854271       3.410000002316      50.000000000000
       380    2      138.797891476071       5.114999998006      50.000000000000
       381    2      135.844744854271       6.819999993697      50.000000000000
       382    2      138.797891476071       8.525000000322      50.000000000000
       383    2      135.844744854271      10.229999996013      50.000000000000
       384    2      138.797891476071      11.935000002638      50.000000000000
       385    1      142.735420312426       1.704999995691      50.000000000000
       386    1      145.688566945160       0.000000000000      50.000000000000
       387    1      142.735420312426       5.114999998006      50.000000000000
       388    1      145.688566945160       3.410000002316      50.000000000000
       389    1      142.735420312426       8.525000000322      50.000000000000
       390    1      145.688566945160       6.819999993697      50.000000000000
       391    1      142.735420312426      11.935000002638      50.000000000000
       392    1      145.688566945160      10.229999996013      50.000000000000
       393    1      148.641713566960       1.704999995691      50.000000000000
       394    1      151.594860199693       0.000000000000      50.000000000000
       395    1      148.641713566960       5.114999998006      50.000000000000
       396    1      151.594860199693       3.410000002316      50.000000000000
       397    1      148.641713566960       8.525000000322      50.000000000000
       398    1      151.594860199693       6.819999993697      50.000000000000
       399    1      148.641713566960      11.935000002638      50.000000000000
       400    1      151.594860199693      10.229999996013      50.000000000000
       401    2      141.751038108804       0.000000000000      50.000000000000
       402    2      144.704184730604       1.704999995691      50.000000000000
       403    2      141.751038108804       3.410000002316      50.000000000000
       404    2      144.704184730604       5.114999998006      50.000000000000
       405    2      141.751038108804       6.819999993697      50.000000000000
       406    2      144.704184730604       8.525000000322      50.000000000000
       407    2      141.751038108804      10.229999996013      50.000000000000
       408    2      144.704184730604      11.935000002638      50.000000000000
       409    2      147.657331363338       0.000000000000      50.000000000000
       410    2      150.610477985138       1.704999995691      50.000000000000
       411    2      147.657331363338       3.410000002316      50.000000000000
       412    2      150.610477985138       5.114999998006      50.000000000000
       413    2      147.657331363338       6.819999993697      50.000000000000
       414    2      150.610477985138       8.525000000322      50.000000000000
       415    2      147.657331363338      10.229999996013      50.000000000000
       416    2      150.610477985138      11.935000002638      50.000000000000
       417    1        0.984382203622      15.344999994019      50.000000000000
       418    1        3.937528836356      13.639999998328      50.000000000000
       419    1        0.984382203622      18.754999996334      50.000000000000
       420    1        3.937528836356      17.050000000644      50.000000000000
       421    1        0.984382203622      22.164999998650      50.000000000000
       422    1        3.937528836356      20.459999992025      50.000000000000
       423    1        0.984382203622      25.575000000966      50.000000000000
       424    1        3.937528836356      23.869999994341      50.000000000000
       425    1        6.890675458156      15.344999994019      50.000000000000
       426    1        9.843822090889      13.639999998328      50.000000000000
       427    1        6.890675458156      18.754999996334      50.000000000000
       428    1        9.843822090889      17.050000000644      50.000000000000
       429    1        6.890675458156      22.164999998650      50.000000000000
       430    1        9.843822090889      20.459999992025      50.000000000000
       431    1        6.890675458156      25.575000000966      50.000000000000
       432    1        9.843822090889      23.869999994341      50.000000000000
       433    2        0.000000000000      13.639999998328      50.000000000000
       434    2        2.953146621800      15.344999994019      50.000000000000
       435    2        0.000000000000      17.050000000644      50.000000000000
       436    2        2.953146621800      18.754999996334      50.000000000000
       437    2        0.000000000000      20.459999992025      50.000000000000
       438    2        2.953146621800      22.164999998650      50.000000000000
       439    2        0.000000000000      23.869999994341      50.000000000000
       440    2        2.953146621800      25.575000000966      50.000000000000
       441    2        5.906293254534      13.639999998328      50.000000000000
       442    2        8.859439876334      15.344999994019      50.000000000000
       443    2        5.906293254534      17.050000000644      50.000000000000
       444    2        8.859439876334      18.754999996334      50.000000000000
       445    2        5.906293254534      20.459999992025      50.000000000000
       446    2        8.859439876334      22.164999998650      50.000000000000
       447    2        5.906293254534      23.869999994341      50.000000000000
       448    2        8.859439876334      25.575000000966      50.000000000000
       449    1       12.796968712689      15.344999994019      50.000000000000
       450    1       15.750115345423      13.639999998328      50.000000000000
       451    1       12.796968712689      18.754999996334      50.000000000000
       452    1       15.750115345423      17.050000000644      50.000000000000
       453    1       12.796968712689      22.164999998650      50.000000000000
       454    1       15.750115345423      20.459999992025      50.000000000000
       455    1       12.796968712689      25.575000000966      50.000000000000
       456    1       15.750115345423      23.869999994341      50.000000000000
       457    1       18.703261967223      15.344999994019      50.000000000000
       458    1       21.656408599956      13.639999998328      50.000000000000
       459    1       18.703261967223      18.754999996334      50.000000000000
       460    1       21.656408599956      17.050000000644      50.000000000000
       461    1       18.703261967223      22.164999998650      50.000000000000
       462    1       21.656408599956      20.459999992025      50.000000000000
       463    1       18.703261967223      25.575000000966      50.000000000000
       464    1       21.656408599956      23.869999994341      50.000000000000
       465    2       11.812586509067      13.639999998328      50.000000000000
       466    2       14.765733130867      15.344999994019      50.000000000000
       467    2       11.812586509067      17.050000000644      50.000000000000
       468    2       14.765733130867      18.754999996334      50.000000000000
       469    2       11.812586509067      20.459999992025      50.000000000000
       470    2       14.765733130867      22.164999998650      50.000000000000
       471    2       11.812586509067      23.869999994341      50.000000000000
       472    2       14.765733130867      25.575000000966      50.000000000000
       473    2       17.718879763601      13.639999998328      50.000000000000
       474    2       20.672026385401      15.344999994019      50.000000000000
       475    2       17.718879763601      17.050000000644      50.000000000000
       476    2       20.672026385401      18.754999996334      50.000000000000
       477    2       17.718879763601      20.459999992025      50.000000000000
       478    2       20.672026385401      22.164999998650      50.000000000000
       479    2       17.718879763601      23.869999994341      50.000000000000
       480    2       20.672026385401      25.575000000966      50.000000000000
       481    1       24.609555221756      15.344999994019      50.000000000000
       482    1       27.562701854490      13.639999998328      50.000000000000
       483    1       24.609555221756      18.754999996334      50.000000000000
       484    1       27.562701854490      17.050000000644      50.000000000000
       485    1       24.609555221756      22.164999998650      50.000000000000
       486    1       27.562701854490      20.459999992025      50.000000000000
       487    1       24.609555221756      25.575000000966      50.000000000000
       488    1       27.562701854490      23.869999994341      50.000000000000
       489    1       30.515848476290      15.344999994019      50.000000000000
       490    1       33.468995109023      13.639999998328      50.000000000000
       491    1       30.515848476290      18.754999996334      50.000000000000
       492    1       33.468995109023      17.050000000644      50.000000000000
       493    1       30.515848476290      22.164999998650      50.000000000000
       494    1       33.468995109023      20.459999992025      50.000000000000
       495    1       30.515848476290      25.575000000966      50.000000000000
       496    1       33.468995109023      23.869999994341      50.000000000000
       497    2       23.625173018134      13.639999998328      50.000000000000
       498    2       26.578319639934      15.344999994019      50.000000000000
       499    2       23.625173018134      17.050000000644      50.000000000000
       500    2       26.578319639934      18.754999996334      50.000000000000
       501    2       23.625173018134      20.459999992025      50.000000000000
       502    2       26.578319639934      22.164999998650      50.000000000000
       503    2       23.625173018134      23.869999994341      50.000000000000
       504    2       26.578319639934      25.575000000966      50.000000000000
       505    2       29.531466272668      13.639999998328      50.000000000000
       506    2       32.484612894468      15.344999994019      50.000000000000
       507    2       29.531466272668      17.050000000644      50.000000000000
       508    2       32.484612894468      18.754999996334      50.000000000000
       509    2       29.531466272668      20.459999992025      50.000000000000
       510    2       32.484612894468      22.164999998650      50.000000000000
       511    2       29.531466272668      23.869999994341      50.000000000000
       512    2       32.484612894468      25.575000000966      50.000000000000
       513    1       36.422141730823      15.344999994019      50.000000000000
       514    1       39.375288363557      13.639999998328      50.000000000000
       515    1       36.422141730823      18.754999996334      50.000000000000
       516    1       39.375288363557      17.050000000644      50.000000000000
       517    1       36.422141730823      22.164999998650      50.000000000000
       518    1       39.375288363557      20.459999992025      50.000000000000
       519    1       36.422141730823      25.575000000966      50.000000000000
       520    1       39.375288363557      23.869999994341      50.000000000000
       521    1       42.328434985357      15.344999994019      50.000000000000
       522    1       45.281581618090      13.639999998328      50.000000000000
       523    1       42.328434985357      18.754999996334      50.000000000000
       524    1       45.281581618090      17.050000000644      50.000000000000
       525    1       42.328434985357      22.164999998650      50.000000000000
       526    1       45.281581618090      20.459999992025      50.000000000000
       527    1       42.328434985357      25.575000000966      50.000000000000
       528    1       45.281581618090      23.869999994341      50.000000000000
       529    2       35.437759527201      13.639999998328      50.000000000000
       530    2       38.390906149001      15.344999994019      50.000000000000
       531    2       35.437759527201      17.050000000644      50.000000000000
       532    2       38.390906149001      18.754999996334      50.000000000000
       533    2       35.437759527201      20.459999992025      50.000000000000
       534    2       38.390906149001      22.164999998650      50.000000000000
       535    2       35.437759527201      23.869999994341      50.000000000000
       536    2       38.390906149001      25.575000000966      50.000000000000
       537    2       41.344052781735      13.639999998328      50.000000000000
       538    2       44.297199403535      15.344999994019      50.000000000000
       539    2       41.344052781735      17.050000000644      50.000000000000
       540    2       44.297199403535      18.754999996334      50.000000000000
       541    2       41.344052781735      20.459999992025      50.000000000000
       542    2       44.297199403535      22.164999998650      50.000000000000
       543    2       41.344052781735      23.869999994341      50.000000000000
       544    2       44.297199403535      25.575000000966      50.000000000000
       545    1       48.234728239890      15.344999994019      50.000000000000
       546    1       51.187874872624      13.639999998328      50.000000000000
       547    1       48.234728239890      18.754999996334      50.000000000000
       548    1       51.187874872624      17.050000000644      50.000000000000
       549    1       48.234728239890      22.164999998650      50.000000000000
       550    1       51.187874872624      20.459999992025      50.000000000000
       551    1       48.234728239890      25.575000000966      50.000000000000
       552    1       51.187874872624      23.869999994341      50.000000000000
       553    1       54.141021494424      15.344999994019      50.000000000000
       554    1       57.094168127157      13.639999998328      50.000000000000
       555    1       54.141021494424      18.754999996334      50.000000000000
       556    1       57.094168127157      17.050000000644      50.000000000000
       557    1       54.141021494424      22.164999998650      50.000000000000
       558    1       57.094168127157      20.459999992025      50.000000000000
       559    1       54.141021494424      25.575000000966      50.000000000000
       560    1       57.094168127157      23.869999994341      50.000000000000
       561    2       47.250346036268      13.639999998328      50.000000000000
       562    2       50.203492658068      15.344999994019      50.000000000000
       563    2       47.250346036268      17.050000000644      50.000000000000
       564    2       50.203492658068      18.754999996334      50.000000000000
       565    2       47.250346036268      20.459999992025      50.000000000000
       566    2       50.203492658068      22.164999998650      50.000000000000
       567    2       47.250346036268      23.869999994341      50.000000000000
       568    2       50.203492658068      25.575000000966      50.000000000000
       569    2       53.156639290802      13.639999998328      50.000000000000
       570    2       56.109785912602      15.344999994019      50.000000000000
       571    2       53.156639290802      17.050000000644      50.000000000000
       572    2       56.109785912602      18.754999996334      50.000000000000
       573    2       53.156639290802      20.459999992025      50.000000000000
       574    2       56.109785912602      22.164999998650      50.000000000000
       575    2       53.156639290802      23.869999994341      50.000000000000
       576    2       56.109785912602      25.575000000966      50.000000000000
       577    1       60.047314748957      15.344999994019      50.000000000000
       578    1       63.000461381691      13.639999998328      50.000000000000
       579    1       60.047314748957      18.754999996334      50.000000000000
       580    1       63.000461381691      17.050000000644      50.000000000000
       581    1       60.047314748957      22.164999998650      50.000000000000
       582    1       63.000461381691      20.459999992025      50.000000000000
       583    1       60.047314748957      25.575000000966      50.000000000000
       584    1       63.000461381691      23.869999994341      50.000000000000
       585    1       65.953608003491      15.344999994019      50.000000000000
       586    1       68.906754636224      13.639999998328      50.000000000000
       587    1       65.953608003491      18.754999996334      50.000000000000
       588    1       68.906754636224      17.050000000644      50.000000000000
       589    1       65.953608003491      22.164999998650      50.000000000000
       590    1       68.906754636224      20.459999992025      50.000000000000
       591    1       65.953608003491      25.575000000966      50.000000000000
       592    1       68.906754636224      23.869999994341      50.000000000000
       593    2       59.062932545335      13.639999998328      50.000000000000
       594    2       62.016079167135      15.344999994019      50.000000000000
       595    2       59.062932545335      17.050000000644      50.000000000000
       596    2       62.016079167135      18.754999996334      50.000000000000
       597    2       59.062932545335      20.459999992025      50.000000000000
       598    2       62.016079167135      22.164999998650      50.000000000000
       599    2       59.062932545335      23.869999994341      50.000000000000
       600    2       62.016079167135      25.575000000966      50.000000000000
       601    2       64.969225799869      13.639999998328      50.000000000000
       602    2       67.922372421669      15.344999994019      50.000000000000
       603    2       64.969225799869      17.050000000644      50.000000000000
       604    2       67.922372421669      18.754999996334      50.000000000000
       605    2       64.969225799869      20.459999992025      50.000000000000
       606    2       67.922372421669      22.164999998650      50.000000000000
       607    2       64.969225799869      23.869999994341      50.000000000000
       608    2       67.922372421669      25.575000000966      50.000000000000
       609    1       71.859901258024      15.344999994019      50.000000000000
       610    1       74.813047890758      13.639999998328      50.000000000000
       611    1       71.859901258024      18.754999996334      50.000000000000
       612    1       74.813047890758      17.050000000644      50.000000000000
       613    1       71.859901258024      22.164999998650      50.000000000000
       614    1       74.813047890758      20.459999992025      50.000000000000
       615    1       71.859901258024      25.575000000966      50.000000000000
       616    1       74.813047890758      23.869999994341      50.000000000000
       617    1       77.766194512558      15.344999994019      50.000000000000
       618    1       80.719341145291      13.639999998328      50.000000000000
       619    1       77.766194512558      18.754999996334      50.000000000000
       620    1       80.719341145291      17.050000000644      50.000000000000
       621    1       77.766194512558      22.164999998650      50.000000000000
       622    1       80.719341145291      20.459999992025      50.000000000000
       623    1       77.766194512558      25.575000000966      50.000000000000
       624    1       80.719341145291      23.869999994341      50.000000000000
       625    2       70.875519054402      13.639999998328      50.000000000000
       626    2       73.828665676202      15.344999994019      50.000000000000
       627    2       70.875519054402      17.050000000644      50.000000000000
       628    2       73.828665676202      18.754999996334      50.000000000000
       629    2       70.875519054402      20.459999992025      50.000000000000
       630    2       73.828665676202      22.164999998650      50.000000000000
       631    2       70.875519054402      23.869999994341      50.000000000000
       632    2       73.828665676202      25.575000000966      50.000000000000
       633    2       76.781812308936      13.639999998328      50.000000000000
       634    2       79.734958930736      15.344999994019      50.000000000000
       635    2       76.781812308936      17.050000000644      50.000000000000
       636    2       79.734958930736      18.754999996334      50.000000000000
       637    2       76.781812308936      20.459999992025      50.000000000000
       638    2       79.734958930736      22.164999998650      50.000000000000
       639    2       76.781812308936      23.869999994341      50.000000000000
       640    2       79.734958930736      25.575000000966      50.000000000000
       641    1       83.672487767091      15.344999994019      50.000000000000
       642    1       86.625634399825      13.639999998328      50.000000000000
       643    1       83.672487767091      18.754999996334      50.000000000000
       644    1       86.625634399825      17.050000000644      50.000000000000
       645    1       83.672487767091      22.164999998650      50.000000000000
       646    1       86.625634399825      20.459999992025      50.000000000000
       647    1       83.672487767091      25.575000000966      50.000000000000
       648    1       86.625634399825      23.869999994341      50.000000000000
       649    1       89.578781021625      15.344999994019      50.000000000000
       650    1       92.531927654358      13.639999998328      50.000000000000
       651    1       89.578781021625      18.754999996334      50.000000000000
       652    1       92.531927654358      17.050000000644      50.000000000000
       653    1       89.578781021625      22.164999998650      50.000000000000
       654    1       92.531927654358      20.459999992025      50.000000000000
       655    1       89.578781021625      25.575000000966      50.000000000000
       656    1       92.531927654358      23.869999994341      50.000000000000
       657    2       82.688105563469      13.639999998328      50.000000000000
       658    2       85.641252185269      15.344999994019      50.000000000000
       659    2       82.688105563469      17.050000000644      50.000000000000
       660    2       85.641252185269      18.754999996334      50.000000000000
       661    2       82.688105563469      20.459999992025      50.000000000000
       662    2       85.641252185269      22.164999998650      50.000000000000
       663    2       82.688105563469      23.869999994341      50.000000000000
       664    2       85.641252185269      25.575000000966      50.000000000000
       665    2       88.594398818003      13.639999998328      50.000000000000
       666    2       91.547545439803      15.344999994019      50.000000000000
       667    2       88.594398818003      17.050000000644      50.000000000000
       668    2       91.547545439803      18.754999996334      50.000000000000
       669    2       88.594398818003      20.459999992025      50.000000000000
       670    2       91.547545439803      22.164999998650      50.000000000000
       671    2       88.594398818003      23.869999994341      50.000000000000
       672    2       91.547545439803      25.575000000966      50.000000000000
       673    1       95.485074276158      15.344999994019      50.000000000000
       674    1       98.438220908892      13.639999998328      50.000000000000
       675    1       95.485074276158      18.754999996334      50.000000000000
       676    1       98.438220908892      17.050000000644      50.000000000000
       677    1       95.485074276158      22.164999998650      50.000000000000
       678    1       98.438220908892      20.459999992025      50.000000000000
       679    1       95.485074276158      25.575000000966      50.000000000000
       680    1       98.438220908892      23.869999994341      50.000000000000
       681    1      101.391367530692      15.344999994019      50.000000000000
       682    1      104.344514163425      13.639999998328      50.000000000000
       683    1      101.391367530692      18.754999996334      50.000000000000
       684    1      104.344514163425      17.050000000644      50.000000000000
       685    1      101.391367530692      22.164999998650      50.000000000000
       686    1      104.344514163425      20.459999992025      50.000000000000
       687    1      101.391367530692      25.575000000966      50.000000000000
       688    1      104.344514163425      23.869999994341      50.000000000000
       689    2       94.500692072536      13.639999998328      50.000000000000
       690    2       97.453838694336      15.344999994019      50.000000000000
       691    2       94.500692072536      17.050000000644      50.000000000000
       692    2       97.453838694336      18.754999996334      50.000000000000
       693    2       94.500692072536      20.459999992025      50.000000000000
       694    2       97.453838694336      22.164999998650      50.000000000000
       695    2       94.500692072536      23.869999994341      50.000000000000
       696    2       97.453838694336      25.575000000966      50.000000000000
       697    2      100.406985327070      13.639999998328      50.000000000000
       698    2      103.360131948870      15.344999994019      50.000000000000
       699    2      100.406985327070      17.050000000644      50.000000000000
       700    2      103.360131948870      18.754999996334      50.000000000000
       701    2      100.406985327070      20.459999992025      50.000000000000
       702    2      103.360131948870      22.164999998650      50.000000000000
       703    2      100.406985327070      23.869999994341      50.000000000000
       704    2      103.360131948870      25.575000000966      50.000000000000
       705    1      107.297660785225      15.344999994019      50.000000000000
       706    1      110.250807417959      13.639999998328      50.000000000000
       707    1      107.297660785225      18.754999996334      50.000000000000
       708    1      110.250807417959      17.050000000644      50.000000000000
       709    1      107.297660785225      22.164999998650      50.000000000000
       710    1      110.250807417959      20.459999992025      50.000000000000
       711    1      107.297660785225      25.575000000966      50.000000000000
       712    1      110.250807417959      23.869999994341      50.000000000000
       713    1      113.203954039759      15.344999994019      50.000000000000
       714    1      116.157100672492      13.639999998328      50.000000000000
       715    1      113.203954039759      18.754999996334      50.000000000000
       716    1      116.157100672492      17.050000000644      50.000000000000
       717    1      113.203954039759      22.164999998650      50.000000000000
       718    1      116.157100672492      20.459999992025      50.000000000000
       719    1      113.203954039759      25.575000000966      50.000000000000
       720    1      116.157100672492      23.869999994341      50.000000000000
       721    2      106.313278581603      13.639999998328      50.000000000000
       722    2      109.266425203403      15.344999994019      50.000000000000
       723    2      106.313278581603      17.050000000644      50.000000000000
       724    2      109.266425203403      18.754999996334      50.000000000000
       725    2      106.313278581603      20.459999992025      50.000000000000
       726    2      109.266425203403      22.164999998650      50.000000000000
       727    2      106.313278581603      23.869999994341      50.000000000000
       728    2      109.266425203403      25.575000000966      50.000000000000
       729    2      112.219571836137      13.639999998328      50.000000000000
       730    2      115.172718457937      15.344999994019      50.000000000000
       731    2      112.219571836137      17.050000000644      50.000000000000
       732    2      115.172718457937      18.754999996334      50.000000000000
       733    2      112.219571836137      20.459999992025      50.000000000000
       734    2      115.172718457937      22.164999998650      50.000000000000
       735    2      112.219571836137      23.869999994341      50.000000000000
       736    2      115.172718457937      25.575000000966      50.000000000000
       737    1      119.110247294292      15.344999994019      50.000000000000
       738    1      122.063393927026      13.639999998328      50.000000000000
       739    1      119.110247294292      18.754999996334      50.000000000000
       740    1      122.063393927026      17.050000000644      50.000000000000
       741    1      119.110247294292      22.164999998650      50.000000000000
       742    1      122.063393927026      20.459999992025      50.000000000000
       743    1      119.110247294292      25.575000000966      50.000000000000
       744    1      122.063393927026      23.869999994341      50.000000000000
       745    1      125.016540548826      15.344999994019      50.000000000000
       746    1      127.969687181559      13.639999998328      50.000000000000
       747    1      125.016540548826      18.754999996334      50.000000000000
       748    1      127.969687181559      17.050000000644      50.000000000000
       749    1      125.016540548826      22.164999998650      50.000000000000
       750    1      127.969687181559      20.459999992025      50.000000000000
       751    1      125.016540548826      25.575000000966      50.000000000000
       752    1      127.969687181559      23.869999994341      50.000000000000
       753    2      118.125865090670      13.639999998328      50.000000000000
       754    2      121.079011712470      15.344999994019      50.000000000000
       755    2      118.125865090670      17.050000000644      50.000000000000
       756    2      121.079011712470      18.754999996334      50.000000000000
       757    2      118.125865090670      20.459999992025      50.000000000000
       758    2      121.079011712470      22.164999998650      50.000000000000
       759    2      118.125865090670      23.869999994341      50.000000000000
       760    2      121.079011712470      25.575000000966      50.000000000000
       761    2      124.032158345204      13.639999998328      50.000000000000
       762    2      126.985304967004      15.344999994019      50.000000000000
       763    2      124.032158345204      17.050000000644      50.000000000000
       764    2      126.985304967004      18.754999996334      50.000000000000
       765    2      124.032158345204      20.459999992025      50.000000000000
       766    2      126.985304967004      22.164999998650      50.000000000000
       767    2      124.032158345204      23.869999994341      50.000000000000
       768    2      126.985304967004      25.575000000966      50.000000000000
       769    1      130.922833803359      15.344999994019      50.000000000000
       770    1      133.875980436093      13.639999998328      50.000000000000
       771    1      130.922833803359      18.754999996334      50.000000000000
       772    1      133.875980436093      17.050000000644      50.000000000000
       773    1      130.922833803359      22.164999998650      50.000000000000
       774    1      133.875980436093      20.459999992025      50.000000000000
       775    1      130.922833803359      25.575000000966      50.000000000000
       776    1      133.875980436093      23.869999994341      50.000000000000
       777    1      136.829127057893      15.344999994019      50.000000000000
       778    1      139.782273690626      13.639999998328      50.000000000000
       779    1      136.829127057893      18.754999996334      50.000000000000
       780    1      139.782273690626      17.050000000644      50.000000000000
       781    1      136.829127057893      22.164999998650      50.000000000000
       782    1      139.782273690626      20.459999992025      50.000000000000
       783    1      136.829127057893      25.575000000966      50.000000000000
       784    1      139.782273690626      23.869999994341      50.000000000000
       785    2      129.938451599737      13.639999998328      50.000000000000
       786    2      132.891598221537      15.344999994019      50.000000000000
       787    2      129.938451599737      17.050000000644      50.000000000000
       788    2      132.891598221537      18.754999996334      50.000000000000
       789    2      129.938451599737      20.459999992025      50.000000000000
       790    2      132.891598221537      22.164999998650      50.000000000000
       791    2      129.938451599737      23.869999994341      50.000000000000
       792    2      132.891598221537      25.575000000966      50.000000000000
       793    2      135.844744854271      13.639999998328      50.000000000000
       794    2      138.797891476071      15.344999994019      50.000000000000
       795    2      135.844744854271      17.050000000644      50.000000000000
       796    2      138.797891476071      18.754999996334      50.000000000000
       797    2      135.844744854271      20.459999992025      50.000000000000
       798    2      138.797891476071      22.164999998650      50.000000000000
       799    2      135.844744854271      23.869999994341      50.000000000000
       800    2      138.797891476071      25.575000000966      50.000000000000
       801    1      142.735420312426      15.344999994019      50.000000000000
       802    1      145.688566945160      13.639999998328      50.000000000000
       803    1      142.735420312426      18.754999996334      50.000000000000
       804    1      145.688566945160      17.050000000644      50.000000000000
       805    1      142.735420312426      22.164999998650      50.000000000000
       806    1      145.688566945160      20.459999992025      50.000000000000
       807    1      142.735420312426      25.575000000966      50.000000000000
       808    1      145.688566945160      23.869999994341      50.000000000000
       809    1      148.641713566960      15.344999994019      50.000000000000
       810    1      151.594860199693      13.639999998328      50.000000000000
       811    1      148.641713566960      18.754999996334      50.000000000000
       812    1      151.594860199693      17.050000000644      50.000000000000
       813    1      148.641713566960      22.164999998650      50.000000000000
       814    1      151.594860199693      20.459999992025      50.000000000000
       815    1      148.641713566960      25.575000000966      50.000000000000
       816    1      151.594860199693      23.869999994341      50.000000000000
       817    2      141.751038108804      13.639999998328      50.000000000000
       818    2      144.704184730604      15.344999994019      50.000000000000
       819    2      141.751038108804      17.050000000644      50.000000000000
       820    2      144.704184730604      18.754999996334      50.000000000000
       821    2      141.751038108804      20.459999992025      50.000000000000
       822    2      144.704184730604      22.164999998650      50.000000000000
       823    2      141.751038108804      23.869999994341      50.000000000000
       824    2      144.704184730604      25.575000000966      50.000000000000
       825    2      147.657331363338      13.639999998328      50.000000000000
       826    2      150.610477985138      15.344999994019      50.000000000000
       827    2      147.657331363338      17.050000000644      50.000000000000
       828    2      150.610477985138      18.754999996334      50.000000000000
       829    2      147.657331363338      20.459999992025      50.000000000000
       830    2      150.610477985138      22.164999998650      50.000000000000
       831    2      147.657331363338      23.869999994341      50.000000000000
       832    2      150.610477985138      25.575000000966      50.000000000000
       833    1        0.984382203622      28.984999992347      50.000000000000
       834    1        3.937528836356      27.279999996656      50.000000000000
       835    1        0.984382203622      32.394999994662      50.000000000000
       836    1        3.937528836356      30.689999998972      50.000000000000
       837    1        0.984382203622      35.804999996978      50.000000000000
       838    1        3.937528836356      34.099999990353      50.000000000000
       839    1        0.984382203622      39.214999999294      50.000000000000
       840    1        3.937528836356      37.509999992669      50.000000000000
       841    1        6.890675458156      28.984999992347      50.000000000000
       842    1        9.843822090889      27.279999996656      50.000000000000
       843    1        6.890675458156      32.394999994662      50.000000000000
       844    1        9.843822090889      30.689999998972      50.000000000000
       845    1        6.890675458156      35.804999996978      50.000000000000
       846    1        9.843822090889      34.099999990353      50.000000000000
       847    1        6.890675458156      39.214999999294      50.000000000000
       848    1        9.843822090889      37.509999992669      50.000000000000
       849    2        0.000000000000      27.279999996656      50.000000000000
       850    2        2.953146621800      28.984999992347      50.000000000000
       851    2        0.000000000000      30.689999998972      50.000000000000
       852    2        2.953146621800      32.394999994662      50.000000000000
       853    2        0.000000000000      34.099999990353      50.000000000000
       854    2        2.953146621800      35.804999996978      50.000000000000
       855    2        0.000000000000      37.509999992669      50.000000000000
       856    2        2.953146621800      39.214999999294      50.000000000000
       857    2        5.906293254534      27.279999996656      50.000000000000
       858    2        8.859439876334      28.984999992347      50.000000000000
       859    2        5.906293254534      30.689999998972      50.000000000000
       860    2        8.859439876334      32.394999994662      50.000000000000
       861    2        5.906293254534      34.099999990353      50.000000000000
       862    2        8.859439876334      35.804999996978      50.000000000000
       863    2        5.906293254534      37.509999992669      50.000000000000
       864    2        8.859439876334      39.214999999294      50.000000000000
       865    1       12.796968712689      28.984999992347      50.000000000000
       866    1       15.750115345423      27.279999996656      50.000000000000
       867    1       12.796968712689      32.394999994662      50.000000000000
       868    1       15.750115345423      30.689999998972      50.000000000000
       869    1       12.796968712689      35.804999996978      50.000000000000
       870    1       15.750115345423      34.099999990353      50.000000000000
       871    1       12.796968712689      39.214999999294      50.000000000000
       872    1       15.750115345423      37.509999992669      50.000000000000
       873    1       18.703261967223      28.984999992347      50.000000000000
       874    1       21.656408599956      27.279999996656      50.000000000000
       875    1       18.703261967223      32.394999994662      50.000000000000
       876    1       21.656408599956      30.689999998972      50.000000000000
       877    1       18.703261967223      35.804999996978      50.000000000000
       878    1       21.656408599956      34.099999990353      50.000000000000
       879    1       18.703261967223      39.214999999294      50.000000000000
       880    1       21.656408599956      37.509999992669      50.000000000000
       881    2       11.812586509067      27.279999996656      50.000000000000
       882    2       14.765733130867      28.984999992347      50.000000000000
       883    2       11.812586509067      30.689999998972      50.000000000000
       884    2       14.765733130867      32.394999994662      50.000000000000
       885    2       11.812586509067      34.099999990353      50.000000000000
       886    2       14.765733130867      35.804999996978      50.000000000000
       887    2       11.812586509067      37.509999992669      50.000000000000
       888    2       14.765733130867      39.214999999294      50.000000000000
       889    2       17.718879763601      27.279999996656      50.000000000000
       890    2       20.672026385401      28.984999992347      50.000000000000
       891    2       17.718879763601      30.689999998972      50.000000000000
       892    2       20.672026385401      32.394999994662      50.000000000000
       893    2       17.718879763601      34.099999990353      50.000000000000
       894    2       20.672026385401      35.804999996978      50.000000000000
       895    2       17.718879763601      37.509999992669      50.000000000000
       896    2       20.672026385401      39.214999999294      50.000000000000
       897    1       24.609555221756      28.984999992347      50.000000000000
       898    1       27.562701854490      27.279999996656      50.000000000000
       899    1       24.609555221756      32.394999994662      50.000000000000
       900    1       27.562701854490      30.689999998972      50.000000000000
       901    1       24.609555221756      35.804999996978      50.000000000000
       902    1       27.562701854490      34.099999990353      50.000000000000
       903    1       24.609555221756      39.214999999294      50.000000000000
       904    1       27.562701854490      37.509999992669      50.000000000000
       905    1       30.515848476290      28.984999992347      50.000000000000
       906    1       33.468995109023      27.279999996656      50.000000000000
       907    1       30.515848476290      32.394999994662      50.000000000000
       908    1       33.468995109023      30.689999998972      50.000000000000
       909    1       30.515848476290      35.804999996978      50.000000000000
       910    1       33.468995109023      34.099999990353      50.000000000000
       911    1       30.515848476290      39.214999999294      50.000000000000
       912    1       33.468995109023      37.509999992669      50.000000000000
       913    2       23.625173018134      27.279999996656      50.000000000000
       914    2       26.578319639934      28.984999992347      50.000000000000
       915    2       23.625173018134      30.689999998972      50.000000000000
       916    2       26.578319639934      32.394999994662      50.000000000000
       917    2       23.625173018134      34.099999990353      50.000000000000
       918    2       26.578319639934      35.804999996978      50.000000000000
       919    2       23.625173018134      37.509999992669      50.000000000000
       920    2       26.578319639934      39.214999999294      50.000000000000
       921    2       29.531466272668      27.279999996656      50.000000000000
       922    2       32.484612894468      28.984999992347      50.000000000000
       923    2       29.531466272668      30.689999998972      50.000000000000
       924    2       32.484612894468      32.394999994662      50.000000000000
       925    2       29.531466272668      34.099999990353      50.000000000000
       926    2       32.484612894468      35.804999996978      50.000000000000
       927    2       29.531466272668      37.509999992669      50.000000000000
       928    2       32.484612894468      39.214999999294      50.000000000000
       929    1       36.422141730823      28.984999992347      50.000000000000
       930    1       39.375288363557      27.279999996656      50.000000000000
       931    1       36.422141730823      32.394999994662      50.000000000000
       932    1       39.375288363557      30.689999998972      50.000000000000
       933    1       36.422141730823      35.804999996978      50.000000000000
       934    1       39.375288363557      34.099999990353      50.000000000000
       935    1       36.422141730823      39.214999999294      50.000000000000
       936    1       39.375288363557      37.509999992669      50.000000000000
       937    1       42.328434985357      28.984999992347      50.000000000000
       938    1       45.281581618090      27.279999996656      50.000000000000
       939    1       42.328434985357      32.394999994662      50.000000000000
       940    1       45.281581618090      30.689999998972      50.000000000000
       941    1       42.328434985357      35.804999996978      50.000000000000
       942    1       45.281581618090      34.099999990353      50.000000000000
       943    1       42.328434985357      39.214999999294      50.000000000000
       944    1       45.281581618090      37.509999992669      50.000000000000
       945    2       35.437759527201      27.279999996656      50.000000000000
       946    2       38.390906149001      28.984999992347      50.000000000000
       947    2       35.437759527201      30.689999998972      50.000000000000
       948    2       38.390906149001      32.394999994662      50.000000000000
       949    2       35.437759527201      34.099999990353      50.000000000000
       950    2       38.390906149001      35.804999996978      50.000000000000
       951    2       35.437759527201      37.509999992669      50.000000000000
       952    2       38.390906149001      39.214999999294      50.000000000000
       953    2       41.344052781735      27.279999996656      50.000000000000
       954    2       44.297199403535      28.984999992347      50.000000000000
       955    2       41.344052781735      30.689999998972      50.000000000000
       956    2       44.297199403535      32.394999994662      50.000000000000
       957    2       41.344052781735      34.099999990353      50.000000000000
       958    2       44.297199403535      35.804999996978      50.000000000000
       959    2       41.344052781735      37.509999992669      50.000000000000
       960    2       44.297199403535      39.214999999294      50.000000000000
       961    1       48.234728239890      28.984999992347      50.000000000000
       962    1       51.187874872624      27.279999996656      50.000000000000
       963    1       48.234728239890      32.394999994662      50.000000000000
       964    1       51.187874872624      30.689999998972      50.000000000000
       965    1       48.234728239890      35.804999996978      50.000000000000
       966    1       51.187874872624      34.099999990353      50.000000000000
       967    1       48.234728239890      39.214999999294      50.000000000000
       968    1       51.187874872624      37.509999992669      50.000000000000
       969    1       54.141021494424      28.984999992347      50.000000000000
       970    1       57.094168127157      27.279999996656      50.000000000000
       971    1       54.141021494424      32.394999994662      50.000000000000
       972    1       57.094168127157      30.689999998972      50.000000000000
       973    1       54.141021494424      35.804999996978      50.000000000000
       974    1       57.094168127157      34.099999990353      50.000000000000
       975    1       54.141021494424      39.214999999294      50.000000000000
       976    1       57.094168127157      37.509999992669      50.000000000000
       977    2       47.250346036268      27.279999996656      50.000000000000
       978    2       50.203492658068      28.984999992347      50.000000000000
       979    2       47.250346036268      30.689999998972      50.000000000000
       980    2       50.203492658068      32.394999994662      50.000000000000
       981    2       47.250346036268      34.099999990353      50.000000000000
       982    2       50.203492658068      35.804999996978      50.000000000000
       983    2       47.250346036268      37.509999992669      50.000000000000
       984    2       50.203492658068      39.214999999294      50.000000000000
       985    2       53.156639290802      27.279999996656      50.000000000000
       986    2       56.109785912602      28.984999992347      50.000000000000
       987    2       53.156639290802      30.689999998972      50.000000000000
       988    2       56.109785912602      32.394999994662      50.000000000000
       989    2       53.156639290802      34.099999990353      50.000000000000
       990    2       56.109785912602      35.804999996978      50.000000000000
       991    2       53.156639290802      37.509999992669      50.000000000000
       992    2       56.109785912602      39.214999999294      50.000000000000
       993    1       60.047314748957      28.984999992347      50.000000000000
       994    1       63.000461381691      27.279999996656      50.000000000000
       995    1       60.047314748957      32.394999994662      50.000000000000
       996    1       63.000461381691      30.689999998972      50.000000000000
       997    1       60.047314748957      35.804999996978      50.000000000000
       998    1       63.000461381691      34.099999990353      50.000000000000
       999    1       60.047314748957      39.214999999294      50.000000000000
      1000    1       63.000461381691      37.509999992669      50.000000000000
      1001    1       65.953608003491      28.984999992347      50.000000000000
      1002    1       68.906754636224      27.279999996656      50.000000000000
      1003    1       65.953608003491      32.394999994662      50.000000000000
      1004    1       68.906754636224      30.689999998972      50.000000000000
      1005    1       65.953608003491      35.804999996978      50.000000000000
      1006    1       68.906754636224      34.099999990353      50.000000000000
      1007    1       65.953608003491      39.214999999294      50.000000000000
      1008    1       68.906754636224      37.509999992669      50.000000000000
      1009    2       59.062932545335      27.279999996656      50.000000000000
      1010    2       62.016079167135      28.984999992347      50.000000000000
      1011    2       59.062932545335      30.689999998972      50.000000000000
      1012    2       62.016079167135      32.394999994662      50.000000000000
      1013    2       59.062932545335      34.099999990353      50.000000000000
      1014    2       62.016079167135      35.804999996978      50.000000000000
      1015    2       59.062932545335      37.509999992669      50.000000000000
      1016    2       62.016079167135      39.214999999294      50.000000000000
      1017    2       64.969225799869      27.279999996656      50.000000000000
      1018    2       67.922372421669      28.984999992347      50.000000000000
      1019    2       64.969225799869      30.689999998972      50.000000000000
      1020    2       67.922372421669      32.394999994662      50.000000000000
      1021    2       64.969225799869      34.099999990353      50.000000000000
      1022    2       67.922372421669      35.804999996978      50.000000000000
      1023    2       64.969225799869      37.509999992669      50.000000000000
      1024    2       67.922372421669      39.214999999294      50.000000000000
      1025    1       71.859901258024      28.984999992347      50.000000000000
      1026    1       74.813047890758      27.279999996656      50.000000000000
      1027    1       71.859901258024      32.394999994662      50.000000000000
      1028    1       74.813047890758      30.689999998972      50.000000000000
      1029    1       71.859901258024      35.804999996978      50.000000000000
      1030    1       74.813047890758      34.099999990353      50.000000000000
      1031    1       71.859901258024      39.214999999294      50.000000000000
      1032    1       74.813047890758      37.509999992669      50.000000000000
      1033    1       77.766194512558      28.984999992347      50.000000000000
      1034    1       80.719341145291      27.279999996656      50.000000000000
      1035    1       77.766194512558      32.394999994662      50.000000000000
      1036    1       80.719341145291      30.689999998972      50.000000000000
      1037    1       77.766194512558      35.804999996978      50.000000000000
      1038    1       80.719341145291      34.099999990353      50.000000000000
      1039    1       77.766194512558      39.214999999294      50.000000000000
      1040    1       80.719341145291      37.509999992669      50.000000000000
      1041    2       70.875519054402      27.279999996656      50.000000000000
      1042    2       73.828665676202      28.984999992347      50.000000000000
      1043    2       70.875519054402      30.689999998972      50.000000000000
      1044    2       73.828665676202      32.394999994662      50.000000000000
      1045    2       70.875519054402      34.099999990353      50.000000000000
      1046    2       73.828665676202      35.804999996978      50.000000000000
      1047    2       70.875519054402      37.509999992669      50.000000000000
      1048    2       73.828665676202      39.214999999294      50.000000000000
      1049    2       76.781812308936      27.279999996656      50.000000000000
      1050    2       79.734958930736      28.984999992347      50.000000000000
      1051    2       76.781812308936      30.689999998972      50.000000000000
      1052    2       79.734958930736      32.394999994662      50.000000000000
      1053    2       76.781812308936      34.099999990353      50.000000000000
      1054    2       79.734958930736      35.804999996978      50.000000000000
      1055    2       76.781812308936      37.509999992669      50.000000000000
      1056    2       79.734958930736      39.214999999294      50.000000000000
      1057    1       83.672487767091      28.984999992347      50.000000000000
      1058    1       86.625634399825      27.279999996656      50.000000000000
      1059    1       83.672487767091      32.394999994662      50.000000000000
      1060    1       86.625634399825      30.689999998972      50.000000000000
      1061    1       83.672487767091      35.804999996978      50.000000000000
      1062    1       86.625634399825      34.099999990353      50.000000000000
      1063    1       83.672487767091      39.214999999294      50.000000000000
      1064    1       86.625634399825      37.509999992669      50.000000000000
      1065    1       89.578781021625      28.984999992347      50.000000000000
      1066    1       92.531927654358      27.279999996656      50.000000000000
      1067    1       89.578781021625      32.394999994662      50.000000000000
      1068    1       92.531927654358      30.689999998972      50.000000000000
      1069    1       89.578781021625      35.804999996978      50.000000000000
      1070    1       92.531927654358      34.099999990353      50.000000000000
      1071    1       89.578781021625      39.214999999294      50.000000000000
      1072    1       92.531927654358      37.509999992669      50.000000000000
      1073    2       82.688105563469      27.279999996656      50.000000000000
      1074    2       85.641252185269      28.984999992347      50.000000000000
      1075    2       82.688105563469      30.689999998972      50.000000000000
      1076    2       85.641252185269      32.394999994662      50.000000000000
      1077    2       82.688105563469      34.099999990353      50.000000000000
      1078    2       85.641252185269      35.804999996978      50.000000000000
      1079    2       82.688105563469      37.509999992669      50.000000000000
      1080    2       85.641252185269      39.214999999294      50.000000000000
      1081    2       88.594398818003      27.279999996656      50.000000000000
      1082    2       91.547545439803      28.984999992347      50.000000000000
      1083    2       88.594398818003      30.689999998972      50.000000000000
      1084    2       91.547545439803      32.394999994662      50.000000000000
      1085    2       88.594398818003      34.099999990353      50.000000000000
      1086    2       91.547545439803      35.804999996978      50.000000000000
      1087    2       88.594398818003      37.509999992669      50.000000000000
      1088    2       91.547545439803      39.214999999294      50.000000000000
      1089    1       95.485074276158      28.984999992347      50.000000000000
      1090    1       98.438220908892      27.279999996656      50.000000000000
      1091    1       95.485074276158      32.394999994662      50.000000000000
      1092    1       98.438220908892      30.689999998972      50.000000000000
      1093    1       95.485074276158      35.804999996978      50.000000000000
      1094    1       98.438220908892      34.099999990353      50.000000000000
      1095    1       95.485074276158      39.214999999294      50.000000000000
      1096    1       98.438220908892      37.509999992669      50.000000000000
      1097    1      101.391367530692      28.984999992347      50.000000000000
      1098    1      104.344514163425      27.279999996656      50.000000000000
      1099    1      101.391367530692      32.394999994662      50.000000000000
      1100    1      104.344514163425      30.689999998972      50.000000000000
      1101    1      101.391367530692      35.804999996978      50.000000000000
      1102    1      104.344514163425      34.099999990353      50.000000000000
      1103    1      101.391367530692      39.214999999294      50.000000000000
      1104    1      104.344514163425      37.509999992669      50.000000000000
      1105    2       94.500692072536      27.279999996656      50.000000000000
      1106    2       97.453838694336      28.984999992347      50.000000000000
      1107    2       94.500692072536      30.689999998972      50.000000000000
      1108    2       97.453838694336      32.394999994662      50.000000000000
      1109    2       94.500692072536      34.099999990353      50.000000000000
      1110    2       97.453838694336      35.804999996978      50.000000000000
      1111    2       94.500692072536      37.509999992669      50.000000000000
      1112    2       97.453838694336      39.214999999294      50.000000000000
      1113    2      100.406985327070      27.279999996656      50.000000000000
      1114    2      103.360131948870      28.984999992347      50.000000000000
      1115    2      100.406985327070      30.689999998972      50.000000000000
      1116    2      103.360131948870      32.394999994662      50.000000000000
      1117    2      100.406985327070      34.099999990353      50.000000000000
      1118    2      103.360131948870      35.804999996978      50.000000000000
      1119    2      100.406985327070      37.509999992669      50.000000000000
      1120    2      103.360131948870      39.214999999294      50.000000000000
      1121    1      107.297660785225      28.984999992347      50.000000000000
      1122    1      110.250807417959      27.279999996656      50.000000000000
      1123    1      107.297660785225      32.394999994662      50.000000000000
      1124    1      110.250807417959      30.689999998972      50.000000000000
      1125    1      107.297660785225      35.804999996978      50.000000000000
      1126    1      110.250807417959      34.099999990353      50.000000000000
      1127    1      107.297660785225      39.214999999294      50.000000000000
      1128    1      110.250807417959      37.509999992669      50.000000000000
      1129    1      113.203954039759      28.984999992347      50.000000000000
      1130    1      116.157100672492      27.279999996656      50.000000000000
      1131    1      113.203954039759      32.394999994662      50.000000000000
      1132    1      116.157100672492      30.689999998972      50.000000000000
      1133    1      113.203954039759      35.804999996978      50.000000000000
      1134    1      116.157100672492      34.099999990353      50.000000000000
      1135    1      113.203954039759      39.214999999294      50.000000000000
      1136    1      116.157100672492      37.509999992669      50.000000000000
      1137    2      106.313278581603      27.279999996656      50.000000000000
      1138    2      109.266425203403      28.984999992347      50.000000000000
      1139    2      106.313278581603      30.689999998972      50.000000000000
      1140    2      109.266425203403      32.394999994662      50.000000000000
      1141    2      106.313278581603      34.099999990353      50.000000000000
      1142    2      109.266425203403      35.804999996978      50.000000000000
      1143    2      106.313278581603      37.509999992669      50.000000000000
      1144    2      109.266425203403      39.214999999294      50.000000000000
      1145    2      112.219571836137      27.279999996656      50.000000000000
      1146    2      115.172718457937      28.984999992347      50.000000000000
      1147    2      112.219571836137      30.689999998972      50.000000000000
      1148    2      115.172718457937      32.394999994662      50.000000000000
      1149    2      112.219571836137      34.099999990353      50.000000000000
      1150    2      115.172718457937      35.804999996978      50.000000000000
      1151    2      112.219571836137      37.509999992669      50.000000000000
      1152    2      115.172718457937      39.214999999294      50.000000000000
      1153    1      119.110247294292      28.984999992347      50.000000000000
      1154    1      122.063393927026      27.279999996656      50.000000000000
      1155    1      119.110247294292      32.394999994662      50.000000000000
      1156    1      122.063393927026      30.689999998972      50.000000000000
      1157    1      119.110247294292      35.804999996978      50.000000000000
      1158    1      122.063393927026      34.099999990353      50.000000000000
      1159    1      119.110247294292      39.214999999294      50.000000000000
      1160    1      122.063393927026      37.509999992669      50.000000000000
      1161    1      125.016540548826      28.984999992347      50.000000000000
      1162    1      127.969687181559      27.279999996656      50.000000000000
      1163    1      125.016540548826      32.394999994662      50.000000000000
      1164    1      127.969687181559      30.689999998972      50.000000000000
      1165    1      125.016540548826      35.804999996978      50.000000000000
      1166    1      127.969687181559      34.099999990353      50.000000000000
      1167    1      125.016540548826      39.214999999294      50.000000000000
      1168    1      127.969687181559      37.509999992669      50.000000000000
      1169    2      118.125865090670      27.279999996656      50.000000000000
      1170    2      121.079011712470      28.984999992347      50.000000000000
      1171    2      118.125865090670      30.689999998972      50.000000000000
      1172    2      121.079011712470      32.394999994662      50.000000000000
      1173    2      118.125865090670      34.099999990353      50.000000000000
      1174    2      121.079011712470      35.804999996978      50.000000000000
      1175    2      118.125865090670      37.509999992669      50.000000000000
      1176    2      121.079011712470      39.214999999294      50.000000000000
      1177    2      124.032158345204      27.279999996656      50.000000000000
      1178    2      126.985304967004      28.984999992347      50.000000000000
      1179    2      124.032158345204      30.689999998972      50.000000000000
      1180    2      126.985304967004      32.394999994662      50.000000000000
      1181    2      124.032158345204      34.099999990353      50.000000000000
      1182    2      126.985304967004      35.804999996978      50.000000000000
      1183    2      124.032158345204      37.509999992669      50.000000000000
      1184    2      126.985304967004      39.214999999294      50.000000000000
      1185    1      130.922833803359      28.984999992347      50.000000000000
      1186    1      133.875980436093      27.279999996656      50.000000000000
      1187    1      130.922833803359      32.394999994662      50.000000000000
      1188    1      133.875980436093      30.689999998972      50.000000000000
      1189    1      130.922833803359      35.804999996978      50.000000000000
      1190    1      133.875980436093      34.099999990353      50.000000000000
      1191    1      130.922833803359      39.214999999294      50.000000000000
      1192    1      133.875980436093      37.509999992669      50.000000000000
      1193    1      136.829127057893      28.984999992347      50.000000000000
      1194    1      139.782273690626      27.279999996656      50.000000000000
      1195    1      136.829127057893      32.394999994662      50.000000000000
      1196    1      139.782273690626      30.689999998972      50.000000000000
      1197    1      136.829127057893      35.804999996978      50.000000000000
      1198    1      139.782273690626      34.099999990353      50.000000000000
      1199    1      136.829127057893      39.214999999294      50.000000000000
      1200    1      139.782273690626      37.509999992669      50.000000000000
      1201    2      129.938451599737      27.279999996656      50.000000000000
      1202    2      132.891598221537      28.984999992347      50.000000000000
      1203    2      129.938451599737      30.689999998972      50.000000000000
      1204    2      132.891598221537      32.394999994662      50.000000000000
      1205    2      129.938451599737      34.099999990353      50.000000000000
      1206    2      132.891598221537      35.804999996978      50.000000000000
      1207    2      129.938451599737      37.509999992669      50.000000000000
      1208    2      132.891598221537      39.214999999294      50.000000000000
      1209    2      135.844744854271      27.279999996656      50.000000000000
      1210    2      138.797891476071      28.984999992347      50.000000000000
      1211    2      135.844744854271      30.689999998972      50.000000000000
      1212    2      138.797891476071      32.394999994662      50.000000000000
      1213    2      135.844744854271      34.099999990353      50.000000000000
      1214    2      138.797891476071      35.804999996978      50.000000000000
      1215    2      135.844744854271      37.509999992669      50.000000000000
      1216    2      138.797891476071      39.214999999294      50.000000000000
      1217    1      142.735420312426      28.984999992347      50.000000000000
      1218    1      145.688566945160      27.279999996656      50.000000000000
      1219    1      142.735420312426      32.394999994662      50.000000000000
      1220    1      145.688566945160      30.689999998972      50.000000000000
      1221    1      142.735420312426      35.804999996978      50.000000000000
      1222    1      145.688566945160      34.099999990353      50.000000000000
      1223    1      142.735420312426      39.214999999294      50.000000000000
      1224    1      145.688566945160      37.509999992669      50.000000000000
      1225    1      148.641713566960      28.984999992347      50.000000000000
      1226    1      151.594860199693      27.279999996656      50.000000000000
      1227    1      148.641713566960      32.394999994662      50.000000000000
      1228    1      151.594860199693      30.689999998972      50.000000000000
      1229    1      148.641713566960      35.804999996978      50.000000000000
      1230    1      151.594860199693      34.099999990353      50.000000000000
      1231    1      148.641713566960      39.214999999294      50.000000000000
      1232    1      151.594860199693      37.509999992669      50.000000000000
      1233    2      141.751038108804      27.279999996656      50.000000000000
      1234    2      144.704184730604      28.984999992347      50.000000000000
      1235    2      141.751038108804      30.689999998972      50.000000000000
      1236    2      144.704184730604      32.394999994662      50.000000000000
      1237    2      141.751038108804      34.099999990353      50.000000000000
      1238    2      144.704184730604      35.804999996978      50.000000000000
      1239    2      141.751038108804      37.509999992669      50.000000000000
      1240    2      144.704184730604      39.214999999294      50.000000000000
      1241    2      147.657331363338      27.279999996656      50.000000000000
      1242    2      150.610477985138      28.984999992347      50.000000000000
      1243    2      147.657331363338      30.689999998972      50.000000000000
      1244    2      150.610477985138      32.394999994662      50.000000000000
      1245    2      147.657331363338      34.099999990353      50.000000000000
      1246    2      150.610477985138      35.804999996978      50.000000000000
      1247    2      147.657331363338      37.509999992669      50.000000000000
      1248    2      150.610477985138      39.214999999294      50.000000000000
      1249    1        0.984382203622      42.624999990675      50.000000000000
      1250    1        3.937528836356      40.919999994984      50.000000000000
      1251    1        0.984382203622      46.034999992990      50.000000000000
      1252    1        3.937528836356      44.329999997300      50.000000000000
      1253    1        0.984382203622      49.444999995306      50.000000000000
      1254    1        3.937528836356      47.739999988681      50.000000000000
      1255    1        0.984382203622      52.854999997622      50.000000000000
      1256    1        3.937528836356      51.149999990997      50.000000000000
      1257    1        6.890675458156      42.624999990675      50.000000000000
      1258    1        9.843822090889      40.919999994984      50.000000000000
      1259    1        6.890675458156      46.034999992990      50.000000000000
      1260    1        9.843822090889      44.329999997300      50.000000000000
      1261    1        6.890675458156      49.444999995306      50.000000000000
      1262    1        9.843822090889      47.739999988681      50.000000000000
      1263    1        6.890675458156      52.854999997622      50.000000000000
      1264    1        9.843822090889      51.149999990997      50.000000000000
      1265    2        0.000000000000      40.919999994984      50.000000000000
      1266    2        2.953146621800      42.624999990675      50.000000000000
      1267    2        0.000000000000      44.329999997300      50.000000000000
      1268    2        2.953146621800      46.034999992990      50.000000000000
      1269    2        0.000000000000      47.739999988681      50.000000000000
      1270    2        2.953146621800      49.444999995306      50.000000000000
      1271    2        0.000000000000      51.149999990997      50.000000000000
      1272    2        2.953146621800      52.854999997622      50.000000000000
      1273    2        5.906293254534      40.919999994984      50.000000000000
      1274    2        8.859439876334      42.624999990675      50.000000000000
      1275    2        5.906293254534      44.329999997300      50.000000000000
      1276    2        8.859439876334      46.034999992990      50.000000000000
      1277    2        5.906293254534      47.739999988681      50.000000000000
      1278    2        8.859439876334      49.444999995306      50.000000000000
      1279    2        5.906293254534      51.149999990997      50.000000000000
      1280    2        8.859439876334      52.854999997622      50.000000000000
      1281    1       12.796968712689      42.624999990675      50.000000000000
      1282    1       15.750115345423      40.919999994984      50.000000000000
      1283    1       12.796968712689      46.034999992990      50.000000000000
      1284    1       15.750115345423      44.329999997300      50.000000000000
      1285    1       12.796968712689      49.444999995306      50.000000000000
      1286    1       15.750115345423      47.739999988681      50.000000000000
      1287    1       12.796968712689      52.854999997622      50.000000000000
      1288    1       15.750115345423      51.149999990997      50.000000000000
      1289    1       18.703261967223      42.624999990675      50.000000000000
      1290    1       21.656408599956      40.919999994984      50.000000000000
      1291    1       18.703261967223      46.034999992990      50.000000000000
      1292    1       21.656408599956      44.329999997300      50.000000000000
      1293    1       18.703261967223      49.444999995306      50.000000000000
      1294    1       21.656408599956      47.739999988681      50.000000000000
      1295    1       18.703261967223      52.854999997622      50.000000000000
      1296    1       21.656408599956      51.149999990997      50.000000000000
      1297    2       11.812586509067      40.919999994984      50.000000000000
      1298    2       14.765733130867      42.624999990675      50.000000000000
      1299    2       11.812586509067      44.329999997300      50.000000000000
      1300    2       14.765733130867      46.034999992990      50.000000000000
      1301    2       11.812586509067      47.739999988681      50.000000000000
      1302    2       14.765733130867      49.444999995306      50.000000000000
      1303    2       11.812586509067      51.149999990997      50.000000000000
      1304    2       14.765733130867      52.854999997622      50.000000000000
      1305    2       17.718879763601      40.919999994984      50.000000000000
      1306    2       20.672026385401      42.624999990675      50.000000000000
      1307    2       17.718879763601      44.329999997300      50.000000000000
      1308    2       20.672026385401      46.034999992990      50.000000000000
      1309    2       17.718879763601      47.739999988681      50.000000000000
      1310    2       20.672026385401      49.444999995306      50.000000000000
      1311    2       17.718879763601      51.149999990997      50.000000000000
      1312    2       20.672026385401      52.854999997622      50.000000000000
      1313    1       24.609555221756      42.624999990675      50.000000000000
      1314    1       27.562701854490      40.919999994984      50.000000000000
      1315    1       24.609555221756      46.034999992990      50.000000000000
      1316    1       27.562701854490      44.329999997300      50.000000000000
      1317    1       24.609555221756      49.444999995306      50.000000000000
      1318    1       27.562701854490      47.739999988681      50.000000000000
      1319    1       24.609555221756      52.854999997622      50.000000000000
      1320    1       27.562701854490      51.149999990997      50.000000000000
      1321    1       30.515848476290      42.624999990675      50.000000000000
      1322    1       33.468995109023      40.919999994984      50.000000000000
      1323    1       30.515848476290      46.034999992990      50.000000000000
      1324    1       33.468995109023      44.329999997300      50.000000000000
      1325    1       30.515848476290      49.444999995306      50.000000000000
      1326    1       33.468995109023      47.739999988681      50.000000000000
      1327    1       30.515848476290      52.854999997622      50.000000000000
      1328    1       33.468995109023      51.149999990997      50.000000000000
      1329    2       23.625173018134      40.919999994984      50.000000000000
      1330    2       26.578319639934      42.624999990675      50.000000000000
      1331    2       23.625173018134      44.329999997300      50.000000000000
      1332    2       26.578319639934      46.034999992990      50.000000000000
      1333    2       23.625173018134      47.739999988681      50.000000000000
      1334    2       26.578319639934      49.444999995306      50.000000000000
      1335    2       23.625173018134      51.149999990997      50.000000000000
      1336    2       26.578319639934      52.854999997622      50.000000000000
      1337    2       29.531466272668      40.919999994984      50.000000000000
      1338    2       32.484612894468      42.624999990675      50.000000000000
      1339    2       29.531466272668      44.329999997300      50.000000000000
      1340    2       32.484612894468      46.034999992990      50.000000000000
      1341    2       29.531466272668      47.739999988681      50.000000000000
      1342    2       32.484612894468      49.444999995306      50.000000000000
      1343    2       29.531466272668      51.149999990997      50.000000000000
      1344    2       32.484612894468      52.854999997622      50.000000000000
      1345    1       36.422141730823      42.624999990675      50.000000000000
      1346    1       39.375288363557      40.919999994984      50.000000000000
      1347    1       36.422141730823      46.034999992990      50.000000000000
      1348    1       39.375288363557      44.329999997300      50.000000000000
      1349    1       36.422141730823      49.444999995306      50.000000000000
      1350    1       39.375288363557      47.739999988681      50.000000000000
      1351    1       36.422141730823      52.854999997622      50.000000000000
      1352    1       39.375288363557      51.149999990997      50.000000000000
      1353    1       42.328434985357      42.624999990675      50.000000000000
      1354    1       45.281581618090      40.919999994984      50.000000000000
      1355    1       42.328434985357      46.034999992990      50.000000000000
      1356    1       45.281581618090      44.329999997300      50.000000000000
      1357    1       42.328434985357      49.444999995306      50.000000000000
      1358    1       45.281581618090      47.739999988681      50.000000000000
      1359    1       42.328434985357      52.854999997622      50.000000000000
      1360    1       45.281581618090      51.149999990997      50.000000000000
      1361    2       35.437759527201      40.919999994984      50.000000000000
      1362    2       38.390906149001      42.624999990675      50.000000000000
      1363    2       35.437759527201      44.329999997300      50.000000000000
      1364    2       38.390906149001      46.034999992990      50.000000000000
      1365    2       35.437759527201      47.739999988681      50.000000000000
      1366    2       38.390906149001      49.444999995306      50.000000000000
      1367    2       35.437759527201      51.149999990997      50.000000000000
      1368    2       38.390906149001      52.854999997622      50.000000000000
      1369    2       41.344052781735      40.919999994984      50.000000000000
      1370    2       44.297199403535      42.624999990675      50.000000000000
      1371    2       41.344052781735      44.329999997300      50.000000000000
      1372    2       44.297199403535      46.034999992990      50.000000000000
      1373    2       41.344052781735      47.739999988681      50.000000000000
      1374    2       44.297199403535      49.444999995306      50.000000000000
      1375    2       41.344052781735      51.149999990997      50.000000000000
      1376    2       44.297199403535      52.854999997622      50.000000000000
      1377    1       48.234728239890      42.624999990675      50.000000000000
      1378    1       51.187874872624      40.919999994984      50.000000000000
      1379    1       48.234728239890      46.034999992990      50.000000000000
      1380    1       51.187874872624      44.329999997300      50.000000000000
      1381    1       48.234728239890      49.444999995306      50.000000000000
      1382    1       51.187874872624      47.739999988681      50.000000000000
      1383    1       48.234728239890      52.854999997622      50.000000000000
      1384    1       51.187874872624      51.149999990997      50.000000000000
      1385    1       54.141021494424      42.624999990675      50.000000000000
      1386    1       57.094168127157      40.919999994984      50.000000000000
      1387    1       54.141021494424      46.034999992990      50.000000000000
      1388    1       57.094168127157      44.329999997300      50.000000000000
      1389    1       54.141021494424      49.444999995306      50.000000000000
      1390    1       57.094168127157      47.739999988681      50.000000000000
      1391    1       54.141021494424      52.854999997622      50.000000000000
      1392    1       57.094168127157      51.149999990997      50.000000000000
      1393    2       47.250346036268      40.919999994984      50.000000000000
      1394    2       50.203492658068      42.624999990675      50.000000000000
      1395    2       47.250346036268      44.329999997300      50.000000000000
      1396    2       50.203492658068      46.034999992990      50.000000000000
      1397    2       47.250346036268      47.739999988681      50.000000000000
      1398    2       50.203492658068      49.444999995306      50.000000000000
      1399    2       47.250346036268      51.149999990997      50.000000000000
      1400    2       50.203492658068      52.854999997622      50.000000000000
      1401    2       53.156639290802      40.919999994984      50.000000000000
      1402    2       56.109785912602      42.624999990675      50.000000000000
      1403    2       53.156639290802      44.329999997300      50.000000000000
      1404    2       56.109785912602      46.034999992990      50.000000000000
      1405    2       53.156639290802      47.739999988681      50.000000000000
      1406    2       56.109785912602      49.444999995306      50.000000000000
      1407    2       53.156639290802      51.149999990997      50.000000000000
      1408    2       56.109785912602      52.854999997622      50.000000000000
      1409    1       60.047314748957      42.624999990675      50.000000000000
      1410    1       63.000461381691      40.919999994984      50.000000000000
      1411    1       60.047314748957      46.034999992990      50.000000000000
      1412    1       63.000461381691      44.329999997300      50.000000000000
      1413    1       60.047314748957      49.444999995306      50.000000000000
      1414    1       63.000461381691      47.739999988681      50.000000000000
      1415    1       60.047314748957      52.854999997622      50.000000000000
      1416    1       63.000461381691      51.149999990997      50.000000000000
      1417    1       65.953608003491      42.624999990675      50.000000000000
      1418    1       68.906754636224      40.919999994984      50.000000000000
      1419    1       65.953608003491      46.034999992990      50.000000000000
      1420    1       68.906754636224      44.329999997300      50.000000000000
      1421    1       65.953608003491      49.444999995306      50.000000000000
      1422    1       68.906754636224      47.739999988681      50.000000000000
      1423    1       65.953608003491      52.854999997622      50.000000000000
      1424    1       68.906754636224      51.149999990997      50.000000000000
      1425    2       59.062932545335      40.919999994984      50.000000000000
      1426    2       62.016079167135      42.624999990675      50.000000000000
      1427    2       59.062932545335      44.329999997300      50.000000000000
      1428    2       62.016079167135      46.034999992990      50.000000000000
      1429    2       59.062932545335      47.739999988681      50.000000000000
      1430    2       62.016079167135      49.444999995306      50.000000000000
      1431    2       59.062932545335      51.149999990997      50.000000000000
      1432    2       62.016079167135      52.854999997622      50.000000000000
      1433    2       64.969225799869      40.919999994984      50.000000000000
      1434    2       67.922372421669      42.624999990675      50.000000000000
      1435    2       64.969225799869      44.329999997300      50.000000000000
      1436    2       67.922372421669      46.034999992990      50.000000000000
      1437    2       64.969225799869      47.739999988681      50.000000000000
      1438    2       67.922372421669      49.444999995306      50.000000000000
      1439    2       64.969225799869      51.149999990997      50.000000000000
      1440    2       67.922372421669      52.854999997622      50.000000000000
      1441    1       71.859901258024      42.624999990675      50.000000000000
      1442    1       74.813047890758      40.919999994984      50.000000000000
      1443    1       71.859901258024      46.034999992990      50.000000000000
      1444    1       74.813047890758      44.329999997300      50.000000000000
      1445    1       71.859901258024      49.444999995306      50.000000000000
      1446    1       74.813047890758      47.739999988681      50.000000000000
      1447    1       71.859901258024      52.854999997622      50.000000000000
      1448    1       74.813047890758      51.149999990997      50.000000000000
      1449    1       77.766194512558      42.624999990675      50.000000000000
      1450    1       80.719341145291      40.919999994984      50.000000000000
      1451    1       77.766194512558      46.034999992990      50.000000000000
      1452    1       80.719341145291      44.329999997300      50.000000000000
      1453    1       77.766194512558      49.444999995306      50.000000000000
      1454    1       80.719341145291      47.739999988681      50.000000000000
      1455    1       77.766194512558      52.854999997622      50.000000000000
      1456    1       80.719341145291      51.149999990997      50.000000000000
      1457    2       70.875519054402      40.919999994984      50.000000000000
      1458    2       73.828665676202      42.624999990675      50.000000000000
      1459    2       70.875519054402      44.329999997300      50.000000000000
      1460    2       73.828665676202      46.034999992990      50.000000000000
      1461    2       70.875519054402      47.739999988681      50.000000000000
      1462    2       73.828665676202      49.444999995306      50.000000000000
      1463    2       70.875519054402      51.149999990997      50.000000000000
      1464    2       73.828665676202      52.854999997622      50.000000000000
      1465    2       76.781812308936      40.919999994984      50.000000000000
      1466    2       79.734958930736      42.624999990675      50.000000000000
      1467    2       76.781812308936      44.329999997300      50.000000000000
      1468    2       79.734958930736      46.034999992990      50.000000000000
      1469    2       76.781812308936      47.739999988681      50.000000000000
      1470    2       79.734958930736      49.444999995306      50.000000000000
      1471    2       76.781812308936      51.149999990997      50.000000000000
      1472    2       79.734958930736      52.854999997622      50.000000000000
      1473    1       83.672487767091      42.624999990675      50.000000000000
      1474    1       86.625634399825      40.919999994984      50.000000000000
      1475    1       83.672487767091      46.034999992990      50.000000000000
      1476    1       86.625634399825      44.329999997300      50.000000000000
      1477    1       83.672487767091      49.444999995306      50.000000000000
      1478    1       86.625634399825      47.739999988681      50.000000000000
      1479    1       83.672487767091      52.854999997622      50.000000000000
      1480    1       86.625634399825      51.149999990997      50.000000000000
      1481    1       89.578781021625      42.624999990675      50.000000000000
      1482    1       92.531927654358      40.919999994984      50.000000000000
      1483    1       89.578781021625      46.034999992990      50.000000000000
      1484    1       92.531927654358      44.329999997300      50.000000000000
      1485    1       89.578781021625      49.444999995306      50.000000000000
      1486    1       92.531927654358      47.739999988681      50.000000000000
      1487    1       89.578781021625      52.854999997622      50.000000000000
      1488    1       92.531927654358      51.149999990997      50.000000000000
      1489    2       82.688105563469      40.919999994984      50.000000000000
      1490    2       85.641252185269      42.624999990675      50.000000000000
      1491    2       82.688105563469      44.329999997300      50.000000000000
      1492    2       85.641252185269      46.034999992990      50.000000000000
      1493    2       82.688105563469      47.739999988681      50.000000000000
      1494    2       85.641252185269      49.444999995306      50.000000000000
      1495    2       82.688105563469      51.149999990997      50.000000000000
      1496    2       85.641252185269      52.854999997622      50.000000000000
      1497    2       88.594398818003      40.919999994984      50.000000000000
      1498    2       91.547545439803      42.624999990675      50.000000000000
      1499    2       88.594398818003      44.329999997300      50.000000000000
      1500    2       91.547545439803      46.034999992990      50.000000000000
      1501    2       88.594398818003      47.739999988681      50.000000000000
      1502    2       91.547545439803      49.444999995306      50.000000000000
      1503    2       88.594398818003      51.149999990997      50.000000000000
      1504    2       91.547545439803      52.854999997622      50.000000000000
      1505    1       95.485074276158      42.624999990675      50.000000000000
      1506    1       98.438220908892      40.919999994984      50.000000000000
      1507    1       95.485074276158      46.034999992990      50.000000000000
      1508    1       98.438220908892      44.329999997300      50.000000000000
      1509    1       95.485074276158      49.444999995306      50.000000000000
      1510    1       98.438220908892      47.739999988681      50.000000000000
      1511    1       95.485074276158      52.854999997622      50.000000000000
      1512    1       98.438220908892      51.149999990997      50.000000000000
      1513    1      101.391367530692      42.624999990675      50.000000000000
      1514    1      104.344514163425      40.919999994984      50.000000000000
      1515    1      101.391367530692      46.034999992990      50.000000000000
      1516    1      104.344514163425      44.329999997300      50.000000000000
      1517    1      101.391367530692      49.444999995306      50.000000000000
      1518    1      104.344514163425      47.739999988681      50.000000000000
      1519    1      101.391367530692      52.854999997622      50.000000000000
      1520    1      104.344514163425      51.149999990997      50.000000000000
      1521    2       94.500692072536      40.919999994984      50.000000000000
      1522    2       97.453838694336      42.624999990675      50.000000000000
      1523    2       94.500692072536      44.329999997300      50.000000000000
      1524    2       97.453838694336      46.034999992990      50.000000000000
      1525    2       94.500692072536      47.739999988681      50.000000000000
      1526    2       97.453838694336      49.444999995306      50.000000000000
      1527    2       94.500692072536      51.149999990997      50.000000000000
      1528    2       97.453838694336      52.854999997622      50.000000000000
      1529    2      100.406985327070      40.919999994984      50.000000000000
      1530    2      103.360131948870      42.624999990675      50.000000000000
      1531    2      100.406985327070      44.329999997300      50.000000000000
      1532    2      103.360131948870      46.034999992990      50.000000000000
      1533    2      100.406985327070      47.739999988681      50.000000000000
      1534    2      103.360131948870      49.444999995306      50.000000000000
      1535    2      100.406985327070      51.149999990997      50.000000000000
      1536    2      103.360131948870      52.854999997622      50.000000000000
      1537    1      107.297660785225      42.624999990675      50.000000000000
      1538    1      110.250807417959      40.919999994984      50.000000000000
      1539    1      107.297660785225      46.034999992990      50.000000000000
      1540    1      110.250807417959      44.329999997300      50.000000000000
      1541    1      107.297660785225      49.444999995306      50.000000000000
      1542    1      110.250807417959      47.739999988681      50.000000000000
      1543    1      107.297660785225      52.854999997622      50.000000000000
      1544    1      110.250807417959      51.149999990997      50.000000000000
      1545    1      113.203954039759      42.624999990675      50.000000000000
      1546    1      116.157100672492      40.919999994984      50.000000000000
      1547    1      113.203954039759      46.034999992990      50.000000000000
      1548    1      116.157100672492      44.329999997300      50.000000000000
      1549    1      113.203954039759      49.444999995306      50.000000000000
      1550    1      116.157100672492      47.739999988681      50.000000000000
      1551    1      113.203954039759      52.854999997622      50.000000000000
      1552    1      116.157100672492      51.149999990997      50.000000000000
      1553    2      106.313278581603      40.919999994984      50.000000000000
      1554    2      109.266425203403      42.624999990675      50.000000000000
      1555    2      106.313278581603      44.329999997300      50.000000000000
      1556    2      109.266425203403      46.034999992990      50.000000000000
      1557    2      106.313278581603      47.739999988681      50.000000000000
      1558    2      109.266425203403      49.444999995306      50.000000000000
      1559    2      106.313278581603      51.149999990997      50.000000000000
      1560    2      109.266425203403      52.854999997622      50.000000000000
      1561    2      112.219571836137      40.919999994984      50.000000000000
      1562    2      115.172718457937      42.624999990675      50.000000000000
      1563    2      112.219571836137      44.329999997300      50.000000000000
      1564    2      115.172718457937      46.034999992990      50.000000000000
      1565    2      112.219571836137      47.739999988681      50.000000000000
      1566    2      115.172718457937      49.444999995306      50.000000000000
      1567    2      112.219571836137      51.149999990997      50.000000000000
      1568    2      115.172718457937      52.854999997622      50.000000000000
      1569    1      119.110247294292      42.624999990675      50.000000000000
      1570    1      122.063393927026      40.919999994984      50.000000000000
      1571    1      119.110247294292      46.034999992990      50.000000000000
      1572    1      122.063393927026      44.329999997300      50.000000000000
      1573    1      119.110247294292      49.444999995306      50.000000000000
      1574    1      122.063393927026      47.739999988681      50.000000000000
      1575    1      119.110247294292      52.854999997622      50.000000000000
      1576    1      122.063393927026      51.149999990997      50.000000000000
      1577    1      125.016540548826      42.624999990675      50.000000000000
      1578    1      127.969687181559      40.919999994984      50.000000000000
      1579    1      125.016540548826      46.034999992990      50.000000000000
      1580    1      127.969687181559      44.329999997300      50.000000000000
      1581    1      125.016540548826      49.444999995306      50.000000000000
      1582    1      127.969687181559      47.739999988681      50.000000000000
      1583    1      125.016540548826      52.854999997622      50.000000000000
      1584    1      127.969687181559      51.149999990997      50.000000000000
      1585    2      118.125865090670      40.919999994984      50.000000000000
      1586    2      121.079011712470      42.624999990675      50.000000000000
      1587    2      118.125865090670      44.329999997300      50.000000000000
      1588    2      121.079011712470      46.034999992990      50.000000000000
      1589    2      118.125865090670      47.739999988681      50.000000000000
      1590    2      121.079011712470      49.444999995306      50.000000000000
      1591    2      118.125865090670      51.149999990997      50.000000000000
      1592    2      121.079011712470      52.854999997622      50.000000000000
      1593    2      124.032158345204      40.919999994984      50.000000000000
      1594    2      126.985304967004      42.624999990675      50.000000000000
      1595    2      124.032158345204      44.329999997300      50.000000000000
      1596    2      126.985304967004      46.034999992990      50.000000000000
      1597    2      124.032158345204      47.739999988681      50.000000000000
      1598    2      126.985304967004      49.444999995306      50.000000000000
      1599    2      124.032158345204      51.149999990997      50.000000000000
      1600    2      126.985304967004      52.854999997622      50.000000000000
      1601    1      130.922833803359      42.624999990675      50.000000000000
      1602    1      133.875980436093      40.919999994984      50.000000000000
      1603    1      130.922833803359      46.034999992990      50.000000000000
      1604    1      133.875980436093      44.329999997300      50.000000000000
      1605    1      130.922833803359      49.444999995306      50.000000000000
      1606    1      133.875980436093      47.739999988681      50.000000000000
      1607    1      130.922833803359      52.854999997622      50.000000000000
      1608    1      133.875980436093      51.149999990997      50.000000000000
      1609    1      136.829127057893      42.624999990675      50.000000000000
      1610    1      139.782273690626      40.919999994984      50.000000000000
      1611    1      136.829127057893      46.034999992990      50.000000000000
      1612    1      139.782273690626      44.329999997300      50.000000000000
      1613    1      136.829127057893      49.444999995306      50.000000000000
      1614    1      139.782273690626      47.739999988681      50.000000000000
      1615    1      136.829127057893      52.854999997622      50.000000000000
      1616    1      139.782273690626      51.149999990997      50.000000000000
      1617    2      129.938451599737      40.919999994984      50.000000000000
      1618    2      132.891598221537      42.624999990675      50.000000000000
      1619    2      129.938451599737      44.329999997300      50.000000000000
      1620    2      132.891598221537      46.034999992990      50.000000000000
      1621    2      129.938451599737      47.739999988681      50.000000000000
      1622    2      132.891598221537      49.444999995306      50.000000000000
      1623    2      129.938451599737      51.149999990997      50.000000000000
      1624    2      132.891598221537      52.854999997622      50.000000000000
      1625    2      135.844744854271      40.919999994984      50.000000000000
      1626    2      138.797891476071      42.624999990675      50.000000000000
      1627    2      135.844744854271      44.329999997300      50.000000000000
      1628    2      138.797891476071      46.034999992990      50.000000000000
      1629    2      135.844744854271      47.739999988681      50.000000000000
      1630    2      138.797891476071      49.444999995306      50.000000000000
      1631    2      135.844744854271      51.149999990997      50.000000000000
      1632    2      138.797891476071      52.854999997622      50.000000000000
      1633    1      142.735420312426      42.624999990675      50.000000000000
      1634    1      145.688566945160      40.919999994984      50.000000000000
      1635    1      142.735420312426      46.034999992990      50.000000000000
      1636    1      145.688566945160      44.329999997300      50.000000000000
      1637    1      142.735420312426      49.444999995306      50.000000000000
      1638    1      145.688566945160      47.739999988681      50.000000000000
      1639    1      142.735420312426      52.854999997622      50.000000000000
      1640    1      145.688566945160      51.149999990997      50.000000000000
      1641    1      148.641713566960      42.624999990675      50.000000000000
      1642    1      151.594860199693      40.919999994984      50.000000000000
      1643    1      148.641713566960      46.034999992990      50.000000000000
      1644    1      151.594860199693      44.329999997300      50.000000000000
      1645    1      148.641713566960      49.444999995306      50.000000000000
      1646    1      151.594860199693      47.739999988681      50.000000000000
      1647    1      148.641713566960      52.854999997622      50.000000000000
      1648    1      151.594860199693      51.149999990997      50.000000000000
      1649    2      141.751038108804      40.919999994984      50.000000000000
      1650    2      144.704184730604      42.624999990675      50.000000000000
      1651    2      141.751038108804      44.329999997300      50.000000000000
      1652    2      144.704184730604      46.034999992990      50.000000000000
      1653    2      141.751038108804      47.739999988681      50.000000000000
      1654    2      144.704184730604      49.444999995306      50.000000000000
      1655    2      141.751038108804      51.149999990997      50.000000000000
      1656    2      144.704184730604      52.854999997622      50.000000000000
      1657    2      147.657331363338      40.919999994984      50.000000000000
      1658    2      150.610477985138      42.624999990675      50.000000000000
      1659    2      147.657331363338      44.329999997300      50.000000000000
      1660    2      150.610477985138      46.034999992990      50.000000000000
      1661    2      147.657331363338      47.739999988681      50.000000000000
      1662    2      150.610477985138      49.444999995306      50.000000000000
      1663    2      147.657331363338      51.149999990997      50.000000000000
      1664    2      150.610477985138      52.854999997622      50.000000000000
      1665    1        0.984382203622      56.264999989003      50.000000000000
      1666    1        3.937528836356      54.559999993312      50.000000000000
      1667    1        0.984382203622      59.674999991318      50.000000000000
      1668    1        3.937528836356      57.969999995628      50.000000000000
      1669    1        0.984382203622      63.084999993634      50.000000000000
      1670    1        3.937528836356      61.379999987009      50.000000000000
      1671    1        0.984382203622      66.494999995950      50.000000000000
      1672    1        3.937528836356      64.789999989325      50.000000000000
      1673    1        6.890675458156      56.264999989003      50.000000000000
      1674    1        9.843822090889      54.559999993312      50.000000000000
      1675    1        6.890675458156      59.674999991318      50.000000000000
      1676    1        9.843822090889      57.969999995628      50.000000000000
      1677    1        6.890675458156      63.084999993634      50.000000000000
      1678    1        9.843822090889      61.379999987009      50.000000000000
      1679    1        6.890675458156      66.494999995950      50.000000000000
      1680    1        9.843822090889      64.789999989325      50.000000000000
      1681    2        0.000000000000      54.559999993312      50.000000000000
      1682    2        2.953146621800      56.264999989003      50.000000000000
      1683    2        0.000000000000      57.969999995628      50.000000000000
      1684    2        2.953146621800      59.674999991318      50.000000000000
      1685    2        0.000000000000      61.379999987009      50.000000000000
      1686    2        2.953146621800      63.084999993634      50.000000000000
      1687    2        0.000000000000      64.789999989325      50.000000000000
      1688    2        2.953146621800      66.494999995950      50.000000000000
      1689    2        5.906293254534      54.559999993312      50.000000000000
      1690    2        8.859439876334      56.264999989003      50.000000000000
      1691    2        5.906293254534      57.969999995628      50.000000000000
      1692    2        8.859439876334      59.674999991318      50.000000000000
      1693    2        5.906293254534      61.379999987009      50.000000000000
      1694    2        8.859439876334      63.084999993634      50.000000000000
      1695    2        5.906293254534      64.789999989325      50.000000000000
      1696    2        8.859439876334      66.494999995950      50.000000000000
      1697    1       12.796968712689      56.264999989003      50.000000000000
      1698    1       15.750115345423      54.559999993312      50.000000000000
      1699    1       12.796968712689      59.674999991318      50.000000000000
      1700    1       15.750115345423      57.969999995628      50.000000000000
      1701    1       12.796968712689      63.084999993634      50.000000000000
      1702    1       15.750115345423      61.379999987009      50.000000000000
      1703    1       12.796968712689      66.494999995950      50.000000000000
      1704    1       15.750115345423      64.789999989325      50.000000000000
      1705    1       18.703261967223      56.264999989003      50.000000000000
      1706    1       21.656408599956      54.559999993312      50.000000000000
      1707    1       18.703261967223      59.674999991318      50.000000000000
      1708    1       21.656408599956      57.969999995628      50.000000000000
      1709    1       18.703261967223      63.084999993634      50.000000000000
      1710    1       21.656408599956      61.379999987009      50.000000000000
      1711    1       18.703261967223      66.494999995950      50.000000000000
      1712    1       21.656408599956      64.789999989325      50.000000000000
      1713    2       11.812586509067      54.559999993312      50.000000000000
      1714    2       14.765733130867      56.264999989003      50.000000000000
      1715    2       11.812586509067      57.969999995628      50.000000000000
      1716    2       14.765733130867      59.674999991318      50.000000000000
      1717    2       11.812586509067      61.379999987009      50.000000000000
      1718    2       14.765733130867      63.084999993634      50.000000000000
      1719    2       11.812586509067      64.789999989325      50.000000000000
      1720    2       14.765733130867      66.494999995950      50.000000000000
      1721    2       17.718879763601      54.559999993312      50.000000000000
      1722    2       20.672026385401      56.264999989003      50.000000000000
      1723    2       17.718879763601      57.969999995628      50.000000000000
      1724    2       20.672026385401      59.674999991318      50.000000000000
      1725    2       17.718879763601      61.379999987009      50.000000000000
      1726    2       20.672026385401      63.084999993634      50.000000000000
      1727    2       17.718879763601      64.789999989325      50.000000000000
      1728    2       20.672026385401      66.494999995950      50.000000000000
      1729    1       24.609555221756      56.264999989003      50.000000000000
      1730    1       27.562701854490      54.559999993312      50.000000000000
      1731    1       24.609555221756      59.674999991318      50.000000000000
      1732    1       27.562701854490      57.969999995628      50.000000000000
      1733    1       24.609555221756      63.084999993634      50.000000000000
      1734    1       27.562701854490      61.379999987009      50.000000000000
      1735    1       24.609555221756      66.494999995950      50.000000000000
      1736    1       27.562701854490      64.789999989325      50.000000000000
      1737    1       30.515848476290      56.264999989003      50.000000000000
      1738    1       33.468995109023      54.559999993312      50.000000000000
      1739    1       30.515848476290      59.674999991318      50.000000000000
      1740    1       33.468995109023      57.969999995628      50.000000000000
      1741    1       30.515848476290      63.084999993634      50.000000000000
      1742    1       33.468995109023      61.379999987009      50.000000000000
      1743    1       30.515848476290      66.494999995950      50.000000000000
      1744    1       33.468995109023      64.789999989325      50.000000000000
      1745    2       23.625173018134      54.559999993312      50.000000000000
      1746    2       26.578319639934      56.264999989003      50.000000000000
      1747    2       23.625173018134      57.969999995628      50.000000000000
      1748    2       26.578319639934      59.674999991318      50.000000000000
      1749    2       23.625173018134      61.379999987009      50.000000000000
      1750    2       26.578319639934      63.084999993634      50.000000000000
      1751    2       23.625173018134      64.789999989325      50.000000000000
      1752    2       26.578319639934      66.494999995950      50.000000000000
      1753    2       29.531466272668      54.559999993312      50.000000000000
      1754    2       32.484612894468      56.264999989003      50.000000000000
      1755    2       29.531466272668      57.969999995628      50.000000000000
      1756    2       32.484612894468      59.674999991318      50.000000000000
      1757    2       29.531466272668      61.379999987009      50.000000000000
      1758    2       32.484612894468      63.084999993634      50.000000000000
      1759    2       29.531466272668      64.789999989325      50.000000000000
      1760    2       32.484612894468      66.494999995950      50.000000000000
      1761    1       36.422141730823      56.264999989003      50.000000000000
      1762    1       39.375288363557      54.559999993312      50.000000000000
      1763    1       36.422141730823      59.674999991318      50.000000000000
      1764    1       39.375288363557      57.969999995628      50.000000000000
      1765    1       36.422141730823      63.084999993634      50.000000000000
      1766    1       39.375288363557      61.379999987009      50.000000000000
      1767    1       36.422141730823      66.494999995950      50.000000000000
      1768    1       39.375288363557      64.789999989325      50.000000000000
      1769    1       42.328434985357      56.264999989003      50.000000000000
      1770    1       45.281581618090      54.559999993312      50.000000000000
      1771    1       42.328434985357      59.674999991318      50.000000000000
      1772    1       45.281581618090      57.969999995628      50.000000000000
      1773    1       42.328434985357      63.084999993634      50.000000000000
      1774    1       45.281581618090      61.379999987009      50.000000000000
      1775    1       42.328434985357      66.494999995950      50.000000000000
      1776    1       45.281581618090      64.789999989325      50.000000000000
      1777    2       35.437759527201      54.559999993312      50.000000000000
      1778    2       38.390906149001      56.264999989003      50.000000000000
      1779    2       35.437759527201      57.969999995628      50.000000000000
      1780    2       38.390906149001      59.674999991318      50.000000000000
      1781    2       35.437759527201      61.379999987009      50.000000000000
      1782    2       38.390906149001      63.084999993634      50.000000000000
      1783    2       35.437759527201      64.789999989325      50.000000000000
      1784    2       38.390906149001      66.494999995950      50.000000000000
      1785    2       41.344052781735      54.559999993312      50.000000000000
      1786    2       44.297199403535      56.264999989003      50.000000000000
      1787    2       41.344052781735      57.969999995628      50.000000000000
      1788    2       44.297199403535      59.674999991318      50.000000000000
      1789    2       41.344052781735      61.379999987009      50.000000000000
      1790    2       44.297199403535      63.084999993634      50.000000000000
      1791    2       41.344052781735      64.789999989325      50.000000000000
      1792    2       44.297199403535      66.494999995950      50.000000000000
      1793    1       48.234728239890      56.264999989003      50.000000000000
      1794    1       51.187874872624      54.559999993312      50.000000000000
      1795    1       48.234728239890      59.674999991318      50.000000000000
      1796    1       51.187874872624      57.969999995628      50.000000000000
      1797    1       48.234728239890      63.084999993634      50.000000000000
      1798    1       51.187874872624      61.379999987009      50.000000000000
      1799    1       48.234728239890      66.494999995950      50.000000000000
      1800    1       51.187874872624      64.789999989325      50.000000000000
      1801    1       54.141021494424      56.264999989003      50.000000000000
      1802    1       57.094168127157      54.559999993312      50.000000000000
      1803    1       54.141021494424      59.674999991318      50.000000000000
      1804    1       57.094168127157      57.969999995628      50.000000000000
      1805    1       54.141021494424      63.084999993634      50.000000000000
      1806    1       57.094168127157      61.379999987009      50.000000000000
      1807    1       54.141021494424      66.494999995950      50.000000000000
      1808    1       57.094168127157      64.789999989325      50.000000000000
      1809    2       47.250346036268      54.559999993312      50.000000000000
      1810    2       50.203492658068      56.264999989003      50.000000000000
      1811    2       47.250346036268      57.969999995628      50.000000000000
      1812    2       50.203492658068      59.674999991318      50.000000000000
      1813    2       47.250346036268      61.379999987009      50.000000000000
      1814    2       50.203492658068      63.084999993634      50.000000000000
      1815    2       47.250346036268      64.789999989325      50.000000000000
      1816    2       50.203492658068      66.494999995950      50.000000000000
      1817    2       53.156639290802      54.559999993312      50.000000000000
      1818    2       56.109785912602      56.264999989003      50.000000000000
      1819    2       53.156639290802      57.969999995628      50.000000000000
      1820    2       56.109785912602      59.674999991318      50.000000000000
      1821    2       53.156639290802      61.379999987009      50.000000000000
      1822    2       56.109785912602      63.084999993634      50.000000000000
      1823    2       53.156639290802      64.789999989325      50.000000000000
      1824    2       56.109785912602      66.494999995950      50.000000000000
      1825    1       60.047314748957      56.264999989003      50.000000000000
      1826    1       63.000461381691      54.559999993312      50.000000000000
      1827    1       60.047314748957      59.674999991318      50.000000000000
      1828    1       63.000461381691      57.969999995628      50.000000000000
      1829    1       60.047314748957      63.084999993634      50.000000000000
      1830    1       63.000461381691      61.379999987009      50.000000000000
      1831    1       60.047314748957      66.494999995950      50.000000000000
      1832    1       63.000461381691      64.789999989325      50.000000000000
      1833    1       65.953608003491      56.264999989003      50.000000000000
      1834    1       68.906754636224      54.559999993312      50.000000000000
      1835    1       65.953608003491      59.674999991318      50.000000000000
      1836    1       68.906754636224      57.969999995628      50.000000000000
      1837    1       65.953608003491      63.084999993634      50.000000000000
      1838    1       68.906754636224      61.379999987009      50.000000000000
      1839    1       65.953608003491      66.494999995950      50.000000000000
      1840    1       68.906754636224      64.789999989325      50.000000000000
      1841    2       59.062932545335      54.559999993312      50.000000000000
      1842    2       62.016079167135      56.264999989003      50.000000000000
      1843    2       59.062932545335      57.969999995628      50.000000000000
      1844    2       62.016079167135      59.674999991318      50.000000000000
      1845    2       59.062932545335      61.379999987009      50.000000000000
      1846    2       62.016079167135      63.084999993634      50.000000000000
      1847    2       59.062932545335      64.789999989325      50.000000000000
      1848    2       62.016079167135      66.494999995950      50.000000000000
      1849    2       64.969225799869      54.559999993312      50.000000000000
      1850    2       67.922372421669      56.264999989003      50.000000000000
      1851    2       64.969225799869      57.969999995628      50.000000000000
      1852    2       67.922372421669      59.674999991318      50.000000000000
      1853    2       64.969225799869      61.379999987009      50.000000000000
      1854    2       67.922372421669      63.084999993634      50.000000000000
      1855    2       64.969225799869      64.789999989325      50.000000000000
      1856    2       67.922372421669      66.494999995950      50.000000000000
      1857    1       71.859901258024      56.264999989003      50.000000000000
      1858    1       74.813047890758      54.559999993312      50.000000000000
      1859    1       71.859901258024      59.674999991318      50.000000000000
      1860    1       74.813047890758      57.969999995628      50.000000000000
      1861    1       71.859901258024      63.084999993634      50.000000000000
      1862    1       74.813047890758      61.379999987009      50.000000000000
      1863    1       71.859901258024      66.494999995950      50.000000000000
      1864    1       74.813047890758      64.789999989325      50.000000000000
      1865    1       77.766194512558      56.264999989003      50.000000000000
      1866    1       80.719341145291      54.559999993312      50.000000000000
      1867    1       77.766194512558      59.674999991318      50.000000000000
      1868    1       80.719341145291      57.969999995628      50.000000000000
      1869    1       77.766194512558      63.084999993634      50.000000000000
      1870    1       80.719341145291      61.379999987009      50.000000000000
      1871    1       77.766194512558      66.494999995950      50.000000000000
      1872    1       80.719341145291      64.789999989325      50.000000000000
      1873    2       70.875519054402      54.559999993312      50.000000000000
      1874    2       73.828665676202      56.264999989003      50.000000000000
      1875    2       70.875519054402      57.969999995628      50.000000000000
      1876    2       73.828665676202      59.674999991318      50.000000000000
      1877    2       70.875519054402      61.379999987009      50.000000000000
      1878    2       73.828665676202      63.084999993634      50.000000000000
      1879    2       70.875519054402      64.789999989325      50.000000000000
      1880    2       73.828665676202      66.494999995950      50.000000000000
      1881    2       76.781812308936      54.559999993312      50.000000000000
      1882    2       79.734958930736      56.264999989003      50.000000000000
      1883    2       76.781812308936      57.969999995628      50.000000000000
      1884    2       79.734958930736      59.674999991318      50.000000000000
      1885    2       76.781812308936      61.379999987009      50.000000000000
      1886    2       79.734958930736      63.084999993634      50.000000000000
      1887    2       76.781812308936      64.789999989325      50.000000000000
      1888    2       79.734958930736      66.494999995950      50.000000000000
      1889    1       83.672487767091      56.264999989003      50.000000000000
      1890    1       86.625634399825      54.559999993312      50.000000000000
      1891    1       83.672487767091      59.674999991318      50.000000000000
      1892    1       86.625634399825      57.969999995628      50.000000000000
      1893    1       83.672487767091      63.084999993634      50.000000000000
      1894    1       86.625634399825      61.379999987009      50.000000000000
      1895    1       83.672487767091      66.494999995950      50.000000000000
      1896    1       86.625634399825      64.789999989325      50.000000000000
      1897    1       89.578781021625      56.264999989003      50.000000000000
      1898    1       92.531927654358      54.559999993312      50.000000000000
      1899    1       89.578781021625      59.674999991318      50.000000000000
      1900    1       92.531927654358      57.969999995628      50.000000000000
      1901    1       89.578781021625      63.084999993634      50.000000000000
      1902    1       92.531927654358      61.379999987009      50.000000000000
      1903    1       89.578781021625      66.494999995950      50.000000000000
      1904    1       92.531927654358      64.789999989325      50.000000000000
      1905    2       82.688105563469      54.559999993312      50.000000000000
      1906    2       85.641252185269      56.264999989003      50.000000000000
      1907    2       82.688105563469      57.969999995628      50.000000000000
      1908    2       85.641252185269      59.674999991318      50.000000000000
      1909    2       82.688105563469      61.379999987009      50.000000000000
      1910    2       85.641252185269      63.084999993634      50.000000000000
      1911    2       82.688105563469      64.789999989325      50.000000000000
      1912    2       85.641252185269      66.494999995950      50.000000000000
      1913    2       88.594398818003      54.559999993312      50.000000000000
      1914    2       91.547545439803      56.264999989003      50.000000000000
      1915    2       88.594398818003      57.969999995628      50.000000000000
      1916    2       91.547545439803      59.674999991318      50.000000000000
      1917    2       88.594398818003      61.379999987009      50.000000000000
      1918    2       91.547545439803      63.084999993634      50.000000000000
      1919    2       88.594398818003      64.789999989325      50.000000000000
      1920    2       91.547545439803      66.494999995950      50.000000000000
      1921    1       95.485074276158      56.264999989003      50.000000000000
      1922    1       98.438220908892      54.559999993312      50.000000000000
      1923    1       95.485074276158      59.674999991318      50.000000000000
      1924    1       98.438220908892      57.969999995628      50.000000000000
      1925    1       95.485074276158      63.084999993634      50.000000000000
      1926    1       98.438220908892      61.379999987009      50.000000000000
      1927    1       95.485074276158      66.494999995950      50.000000000000
      1928    1       98.438220908892      64.789999989325      50.000000000000
      1929    1      101.391367530692      56.264999989003      50.000000000000
      1930    1      104.344514163425      54.559999993312      50.000000000000
      1931    1      101.391367530692      59.674999991318      50.000000000000
      1932    1      104.344514163425      57.969999995628      50.000000000000
      1933    1      101.391367530692      63.084999993634      50.000000000000
      1934    1      104.344514163425      61.379999987009      50.000000000000
      1935    1      101.391367530692      66.494999995950      50.000000000000
      1936    1      104.344514163425      64.789999989325      50.000000000000
      1937    2       94.500692072536      54.559999993312      50.000000000000
      1938    2       97.453838694336      56.264999989003      50.000000000000
      1939    2       94.500692072536      57.969999995628      50.000000000000
      1940    2       97.453838694336      59.674999991318      50.000000000000
      1941    2       94.500692072536      61.379999987009      50.000000000000
      1942    2       97.453838694336      63.084999993634      50.000000000000
      1943    2       94.500692072536      64.789999989325      50.000000000000
      1944    2       97.453838694336      66.494999995950      50.000000000000
      1945    2      100.406985327070      54.559999993312      50.000000000000
      1946    2      103.360131948870      56.264999989003      50.000000000000
      1947    2      100.406985327070      57.969999995628      50.000000000000
      1948    2      103.360131948870      59.674999991318      50.000000000000
      1949    2      100.406985327070      61.379999987009      50.000000000000
      1950    2      103.360131948870      63.084999993634      50.000000000000
      1951    2      100.406985327070      64.789999989325      50.000000000000
      1952    2      103.360131948870      66.494999995950      50.000000000000
      1953    1      107.297660785225      56.264999989003      50.000000000000
      1954    1      110.250807417959      54.559999993312      50.000000000000
      1955    1      107.297660785225      59.674999991318      50.000000000000
      1956    1      110.250807417959      57.969999995628      50.000000000000
      1957    1      107.297660785225      63.084999993634      50.000000000000
      1958    1      110.250807417959      61.379999987009      50.000000000000
      1959    1      107.297660785225      66.494999995950      50.000000000000
      1960    1      110.250807417959      64.789999989325      50.000000000000
      1961    1      113.203954039759      56.264999989003      50.000000000000
      1962    1      116.157100672492      54.559999993312      50.000000000000
      1963    1      113.203954039759      59.674999991318      50.000000000000
      1964    1      116.157100672492      57.969999995628      50.000000000000
      1965    1      113.203954039759      63.084999993634      50.000000000000
      1966    1      116.157100672492      61.379999987009      50.000000000000
      1967    1      113.203954039759      66.494999995950      50.000000000000
      1968    1      116.157100672492      64.789999989325      50.000000000000
      1969    2      106.313278581603      54.559999993312      50.000000000000
      1970    2      109.266425203403      56.264999989003      50.000000000000
      1971    2      106.313278581603      57.969999995628      50.000000000000
      1972    2      109.266425203403      59.674999991318      50.000000000000
      1973    2      106.313278581603      61.379999987009      50.000000000000
      1974    2      109.266425203403      63.084999993634      50.000000000000
      1975    2      106.313278581603      64.789999989325      50.000000000000
      1976    2      109.266425203403      66.494999995950      50.000000000000
      1977    2      112.219571836137      54.559999993312      50.000000000000
      1978    2      115.172718457937      56.264999989003      50.000000000000
      1979    2      112.219571836137      57.969999995628      50.000000000000
      1980    2      115.172718457937      59.674999991318      50.000000000000
      1981    2      112.219571836137      61.379999987009      50.000000000000
      1982    2      115.172718457937      63.084999993634      50.000000000000
      1983    2      112.219571836137      64.789999989325      50.000000000000
      1984    2      115.172718457937      66.494999995950      50.000000000000
      1985    1      119.110247294292      56.264999989003      50.000000000000
      1986    1      122.063393927026      54.559999993312      50.000000000000
      1987    1      119.110247294292      59.674999991318      50.000000000000
      1988    1      122.063393927026      57.969999995628      50.000000000000
      1989    1      119.110247294292      63.084999993634      50.000000000000
      1990    1      122.063393927026      61.379999987009      50.000000000000
      1991    1      119.110247294292      66.494999995950      50.000000000000
      1992    1      122.063393927026      64.789999989325      50.000000000000
      1993    1      125.016540548826      56.264999989003      50.000000000000
      1994    1      127.969687181559      54.559999993312      50.000000000000
      1995    1      125.016540548826      59.674999991318      50.000000000000
      1996    1      127.969687181559      57.969999995628      50.000000000000
      1997    1      125.016540548826      63.084999993634      50.000000000000
      1998    1      127.969687181559      61.379999987009      50.000000000000
      1999    1      125.016540548826      66.494999995950      50.000000000000
      2000    1      127.969687181559      64.789999989325      50.000000000000
      2001    2      118.125865090670      54.559999993312      50.000000000000
      2002    2      121.079011712470      56.264999989003      50.000000000000
      2003    2      118.125865090670      57.969999995628      50.000000000000
      2004    2      121.079011712470      59.674999991318      50.000000000000
      2005    2      118.125865090670      61.379999987009      50.000000000000
      2006    2      121.079011712470      63.084999993634      50.000000000000
      2007    2      118.125865090670      64.789999989325      50.000000000000
      2008    2      121.079011712470      66.494999995950      50.000000000000
      2009    2      124.032158345204      54.559999993312      50.000000000000
      2010    2      126.985304967004      56.264999989003      50.000000000000
      2011    2      124.032158345204      57.969999995628      50.000000000000
      2012    2      126.985304967004      59.674999991318      50.000000000000
      2013    2      124.032158345204      61.379999987009      50.000000000000
      2014    2      126.985304967004      63.084999993634      50.000000000000
      2015    2      124.032158345204      64.789999989325      50.000000000000
      2016    2      126.985304967004      66.494999995950      50.000000000000
      2017    1      130.922833803359      56.264999989003      50.000000000000
      2018    1      133.875980436093      54.559999993312      50.000000000000
      2019    1      130.922833803359      59.674999991318      50.000000000000
      2020    1      133.875980436093      57.969999995628      50.000000000000
      2021    1      130.922833803359      63.084999993634      50.000000000000
      2022    1      133.875980436093      61.379999987009      50.000000000000
      2023    1      130.922833803359      66.494999995950      50.000000000000
      2024    1      133.875980436093      64.789999989325      50.000000000000
      2025    1      136.829127057893      56.264999989003      50.000000000000
      2026    1      139.782273690626      54.559999993312      50.000000000000
      2027    1      136.829127057893      59.674999991318      50.000000000000
      2028    1      139.782273690626      57.969999995628      50.000000000000
      2029    1      136.829127057893      63.084999993634      50.000000000000
      2030    1      139.782273690626      61.379999987009      50.000000000000
      2031    1      136.829127057893      66.494999995950      50.000000000000
      2032    1      139.782273690626      64.789999989325      50.000000000000
      2033    2      129.938451599737      54.559999993312      50.000000000000
      2034    2      132.891598221537      56.264999989003      50.000000000000
      2035    2      129.938451599737      57.969999995628      50.000000000000
      2036    2      132.891598221537      59.674999991318      50.000000000000
      2037    2      129.938451599737      61.379999987009      50.000000000000
      2038    2      132.891598221537      63.084999993634      50.000000000000
      2039    2      129.938451599737      64.789999989325      50.000000000000
      2040    2      132.891598221537      66.494999995950      50.000000000000
      2041    2      135.844744854271      54.559999993312      50.000000000000
      2042    2      138.797891476071      56.264999989003      50.000000000000
      2043    2      135.844744854271      57.969999995628      50.000000000000
      2044    2      138.797891476071      59.674999991318      50.000000000000
      2045    2      135.844744854271      61.379999987009      50.000000000000
      2046    2      138.797891476071      63.084999993634      50.000000000000
      2047    2      135.844744854271      64.789999989325      50.000000000000
      2048    2      138.797891476071      66.494999995950      50.000000000000
      2049    1      142.735420312426      56.264999989003      50.000000000000
      2050    1      145.688566945160      54.559999993312      50.000000000000
      2051    1      142.735420312426      59.674999991318      50.000000000000
      2052    1      145.688566945160      57.969999995628      50.000000000000
      2053    1      142.735420312426      63.084999993634      50.000000000000
      2054    1      145.688566945160      61.379999987009      50.000000000000
      2055    1      142.735420312426      66.494999995950      50.000000000000
      2056    1      145.688566945160      64.789999989325      50.000000000000
      2057    1      148.641713566960      56.264999989003      50.000000000000
      2058    1      151.594860199693      54.559999993312      50.000000000000
      2059    1      148.641713566960      59.674999991318      50.000000000000
      2060    1      151.594860199693      57.969999995628      50.000000000000
      2061    1      148.641713566960      63.084999993634      50.000000000000
      2062    1      151.594860199693      61.379999987009      50.000000000000
      2063    1      148.641713566960      66.494999995950      50.000000000000
      2064    1      151.594860199693      64.789999989325      50.000000000000
      2065    2      141.751038108804      54.559999993312      50.000000000000
      2066    2      144.704184730604      56.264999989003      50.000000000000
      2067    2      141.751038108804      57.969999995628      50.000000000000
      2068    2      144.704184730604      59.674999991318      50.000000000000
      2069    2      141.751038108804      61.379999987009      50.000000000000
      2070    2      144.704184730604      63.084999993634      50.000000000000
      2071    2      141.751038108804      64.789999989325      50.000000000000
      2072    2      144.704184730604      66.494999995950      50.000000000000
      2073    2      147.657331363338      54.559999993312      50.000000000000
      2074    2      150.610477985138      56.264999989003      50.000000000000
      2075    2      147.657331363338      57.969999995628      50.000000000000
      2076    2      150.610477985138      59.674999991318      50.000000000000
      2077    2      147.657331363338      61.379999987009      50.000000000000
      2078    2      150.610477985138      63.084999993634      50.000000000000
      2079    2      147.657331363338      64.789999989325      50.000000000000
      2080    2      150.610477985138      66.494999995950      50.000000000000
      2081    1        0.984382203622      69.904999987331      50.000000000000
      2082    1        3.937528836356      68.199999991640      50.000000000000
      2083    1        0.984382203622      73.314999989646      50.000000000000
      2084    1        3.937528836356      71.609999993956      50.000000000000
      2085    1        0.984382203622      76.724999991962      50.000000000000
      2086    1        3.937528836356      75.019999985337      50.000000000000
      2087    1        0.984382203622      80.134999994278      50.000000000000
      2088    1        3.937528836356      78.429999987653      50.000000000000
      2089    1        6.890675458156      69.904999987331      50.000000000000
      2090    1        9.843822090889      68.199999991640      50.000000000000
      2091    1        6.890675458156      73.314999989646      50.000000000000
      2092    1        9.843822090889      71.609999993956      50.000000000000
      2093    1        6.890675458156      76.724999991962      50.000000000000
      2094    1        9.843822090889      75.019999985337      50.000000000000
      2095    1        6.890675458156      80.134999994278      50.000000000000
      2096    1        9.843822090889      78.429999987653      50.000000000000
      2097    2        0.000000000000      68.199999991640      50.000000000000
      2098    2        2.953146621800      69.904999987331      50.000000000000
      2099    2        0.000000000000      71.609999993956      50.000000000000
      2100    2        2.953146621800      73.314999989646      50.000000000000
      2101    2        0.000000000000      75.019999985337      50.000000000000
      2102    2        2.953146621800      76.724999991962      50.000000000000
      2103    2        0.000000000000      78.429999987653      50.000000000000
      2104    2        2.953146621800      80.134999994278      50.000000000000
      2105    2        5.906293254534      68.199999991640      50.000000000000
      2106    2        8.859439876334      69.904999987331      50.000000000000
      2107    2        5.906293254534      71.609999993956      50.000000000000
      2108    2        8.859439876334      73.314999989646      50.000000000000
      2109    2        5.906293254534      75.019999985337      50.000000000000
      2110    2        8.859439876334      76.724999991962      50.000000000000
      2111    2        5.906293254534      78.429999987653      50.000000000000
      2112    2        8.859439876334      80.134999994278      50.000000000000
      2113    1       12.796968712689      69.904999987331      50.000000000000
      2114    1       15.750115345423      68.199999991640      50.000000000000
      2115    1       12.796968712689      73.314999989646      50.000000000000
      2116    1       15.750115345423      71.609999993956      50.000000000000
      2117    1       12.796968712689      76.724999991962      50.000000000000
      2118    1       15.750115345423      75.019999985337      50.000000000000
      2119    1       12.796968712689      80.134999994278      50.000000000000
      2120    1       15.750115345423      78.429999987653      50.000000000000
      2121    1       18.703261967223      69.904999987331      50.000000000000
      2122    1       21.656408599956      68.199999991640      50.000000000000
      2123    1       18.703261967223      73.314999989646      50.000000000000
      2124    1       21.656408599956      71.609999993956      50.000000000000
      2125    1       18.703261967223      76.724999991962      50.000000000000
      2126    1       21.656408599956      75.019999985337      50.000000000000
      2127    1       18.703261967223      80.134999994278      50.000000000000
      2128    1       21.656408599956      78.429999987653      50.000000000000
      2129    2       11.812586509067      68.199999991640      50.000000000000
      2130    2       14.765733130867      69.904999987331      50.000000000000
      2131    2       11.812586509067      71.609999993956      50.000000000000
      2132    2       14.765733130867      73.314999989646      50.000000000000
      2133    2       11.812586509067      75.019999985337      50.000000000000
      2134    2       14.765733130867      76.724999991962      50.000000000000
      2135    2       11.812586509067      78.429999987653      50.000000000000
      2136    2       14.765733130867      80.134999994278      50.000000000000
      2137    2       17.718879763601      68.199999991640      50.000000000000
      2138    2       20.672026385401      69.904999987331      50.000000000000
      2139    2       17.718879763601      71.609999993956      50.000000000000
      2140    2       20.672026385401      73.314999989646      50.000000000000
      2141    2       17.718879763601      75.019999985337      50.000000000000
      2142    2       20.672026385401      76.724999991962      50.000000000000
      2143    2       17.718879763601      78.429999987653      50.000000000000
      2144    2       20.672026385401      80.134999994278      50.000000000000
      2145    1       24.609555221756      69.904999987331      50.000000000000
      2146    1       27.562701854490      68.199999991640      50.000000000000
      2147    1       24.609555221756      73.314999989646      50.000000000000
      2148    1       27.562701854490      71.609999993956      50.000000000000
      2149    1       24.609555221756      76.724999991962      50.000000000000
      2150    1       27.562701854490      75.019999985337      50.000000000000
      2151    1       24.609555221756      80.134999994278      50.000000000000
      2152    1       27.562701854490      78.429999987653      50.000000000000
      2153    1       30.515848476290      69.904999987331      50.000000000000
      2154    1       33.468995109023      68.199999991640      50.000000000000
      2155    1       30.515848476290      73.314999989646      50.000000000000
      2156    1       33.468995109023      71.609999993956      50.000000000000
      2157    1       30.515848476290      76.724999991962      50.000000000000
      2158    1       33.468995109023      75.019999985337      50.000000000000
      2159    1       30.515848476290      80.134999994278      50.000000000000
      2160    1       33.468995109023      78.429999987653      50.000000000000
      2161    2       23.625173018134      68.199999991640      50.000000000000
      2162    2       26.578319639934      69.904999987331      50.000000000000
      2163    2       23.625173018134      71.609999993956      50.000000000000
      2164    2       26.578319639934      73.314999989646      50.000000000000
      2165    2       23.625173018134      75.019999985337      50.000000000000
      2166    2       26.578319639934      76.724999991962      50.000000000000
      2167    2       23.625173018134      78.429999987653      50.000000000000
      2168    2       26.578319639934      80.134999994278      50.000000000000
      2169    2       29.531466272668      68.199999991640      50.000000000000
      2170    2       32.484612894468      69.904999987331      50.000000000000
      2171    2       29.531466272668      71.609999993956      50.000000000000
      2172    2       32.484612894468      73.314999989646      50.000000000000
      2173    2       29.531466272668      75.019999985337      50.000000000000
      2174    2       32.484612894468      76.724999991962      50.000000000000
      2175    2       29.531466272668      78.429999987653      50.000000000000
      2176    2       32.484612894468      80.134999994278      50.000000000000
      2177    1       36.422141730823      69.904999987331      50.000000000000
      2178    1       39.375288363557      68.199999991640      50.000000000000
      2179    1       36.422141730823      73.314999989646      50.000000000000
      2180    1       39.375288363557      71.609999993956      50.000000000000
      2181    1       36.422141730823      76.724999991962      50.000000000000
      2182    1       39.375288363557      75.019999985337      50.000000000000
      2183    1       36.422141730823      80.134999994278      50.000000000000
      2184    1       39.375288363557      78.429999987653      50.000000000000
      2185    1       42.328434985357      69.904999987331      50.000000000000
      2186    1       45.281581618090      68.199999991640      50.000000000000
      2187    1       42.328434985357      73.314999989646      50.000000000000
      2188    1       45.281581618090      71.609999993956      50.000000000000
      2189    1       42.328434985357      76.724999991962      50.000000000000
      2190    1       45.281581618090      75.019999985337      50.000000000000
      2191    1       42.328434985357      80.134999994278      50.000000000000
      2192    1       45.281581618090      78.429999987653      50.000000000000
      2193    2       35.437759527201      68.199999991640      50.000000000000
      2194    2       38.390906149001      69.904999987331      50.000000000000
      2195    2       35.437759527201      71.609999993956      50.000000000000
      2196    2       38.390906149001      73.314999989646      50.000000000000
      2197    2       35.437759527201      75.019999985337      50.000000000000
      2198    2       38.390906149001      76.724999991962      50.000000000000
      2199    2       35.437759527201      78.429999987653      50.000000000000
      2200    2       38.390906149001      80.134999994278      50.000000000000
      2201    2       41.344052781735      68.199999991640      50.000000000000
      2202    2       44.297199403535      69.904999987331      50.000000000000
      2203    2       41.344052781735      71.609999993956      50.000000000000
      2204    2       44.297199403535      73.314999989646      50.000000000000
      2205    2       41.344052781735      75.019999985337      50.000000000000
      2206    2       44.297199403535      76.724999991962      50.000000000000
      2207    2       41.344052781735      78.429999987653      50.000000000000
      2208    2       44.297199403535      80.134999994278      50.000000000000
      2209    1       48.234728239890      69.904999987331      50.000000000000
      2210    1       51.187874872624      68.199999991640      50.000000000000
      2211    1       48.234728239890      73.314999989646      50.000000000000
      2212    1       51.187874872624      71.609999993956      50.000000000000
      2213    1       48.234728239890      76.724999991962      50.000000000000
      2214    1       51.187874872624      75.019999985337      50.000000000000
      2215    1       48.234728239890      80.134999994278      50.000000000000
      2216    1       51.187874872624      78.429999987653      50.000000000000
      2217    1       54.141021494424      69.904999987331      50.000000000000
      2218    1       57.094168127157      68.199999991640      50.000000000000
      2219    1       54.141021494424      73.314999989646      50.000000000000
      2220    1       57.094168127157      71.609999993956      50.000000000000
      2221    1       54.141021494424      76.724999991962      50.000000000000
      2222    1       57.094168127157      75.019999985337      50.000000000000
      2223    1       54.141021494424      80.134999994278      50.000000000000
      2224    1       57.094168127157      78.429999987653      50.000000000000
      2225    2       47.250346036268      68.199999991640      50.000000000000
      2226    2       50.203492658068      69.904999987331      50.000000000000
      2227    2       47.250346036268      71.609999993956      50.000000000000
      2228    2       50.203492658068      73.314999989646      50.000000000000
      2229    2       47.250346036268      75.019999985337      50.000000000000
      2230    2       50.203492658068      76.724999991962      50.000000000000
      2231    2       47.250346036268      78.429999987653      50.000000000000
      2232    2       50.203492658068      80.134999994278      50.000000000000
      2233    2       53.156639290802      68.199999991640      50.000000000000
      2234    2       56.109785912602      69.904999987331      50.000000000000
      2235    2       53.156639290802      71.609999993956      50.000000000000
      2236    2       56.109785912602      73.314999989646      50.000000000000
      2237    2       53.156639290802      75.019999985337      50.000000000000
      2238    2       56.109785912602      76.724999991962      50.000000000000
      2239    2       53.156639290802      78.429999987653      50.000000000000
      2240    2       56.109785912602      80.134999994278      50.000000000000
      2241    1       60.047314748957      69.904999987331      50.000000000000
      2242    1       63.000461381691      68.199999991640      50.000000000000
      2243    1       60.047314748957      73.314999989646      50.000000000000
      2244    1       63.000461381691      71.609999993956      50.000000000000
      2245    1       60.047314748957      76.724999991962      50.000000000000
      2246    1       63.000461381691      75.019999985337      50.000000000000
      2247    1       60.047314748957      80.134999994278      50.000000000000
      2248    1       63.000461381691      78.429999987653      50.000000000000
      2249    1       65.953608003491      69.904999987331      50.000000000000
      2250    1       68.906754636224      68.199999991640      50.000000000000
      2251    1       65.953608003491      73.314999989646      50.000000000000
      2252    1       68.906754636224      71.609999993956      50.000000000000
      2253    1       65.953608003491      76.724999991962      50.000000000000
      2254    1       68.906754636224      75.019999985337      50.000000000000
      2255    1       65.953608003491      80.134999994278      50.000000000000
      2256    1       68.906754636224      78.429999987653      50.000000000000
      2257    2       59.062932545335      68.199999991640      50.000000000000
      2258    2       62.016079167135      69.904999987331      50.000000000000
      2259    2       59.062932545335      71.609999993956      50.000000000000
      2260    2       62.016079167135      73.314999989646      50.000000000000
      2261    2       59.062932545335      75.019999985337      50.000000000000
      2262    2       62.016079167135      76.724999991962      50.000000000000
      2263    2       59.062932545335      78.429999987653      50.000000000000
      2264    2       62.016079167135      80.134999994278      50.000000000000
      2265    2       64.969225799869      68.199999991640      50.000000000000
      2266    2       67.922372421669      69.904999987331      50.000000000000
      2267    2       64.969225799869      71.609999993956      50.000000000000
      2268    2       67.922372421669      73.314999989646      50.000000000000
      2269    2       64.969225799869      75.019999985337      50.000000000000
      2270    2       67.922372421669      76.724999991962      50.000000000000
      2271    2       64.969225799869      78.429999987653      50.000000000000
      2272    2       67.922372421669      80.134999994278      50.000000000000
      2273    1       71.859901258024      69.904999987331      50.000000000000
      2274    1       74.813047890758      68.199999991640      50.000000000000
      2275    1       71.859901258024      73.314999989646      50.000000000000
      2276    1       74.813047890758      71.609999993956      50.000000000000
      2277    1       71.859901258024      76.724999991962      50.000000000000
      2278    1       74.813047890758      75.019999985337      50.000000000000
      2279    1       71.859901258024      80.134999994278      50.000000000000
      2280    1       74.813047890758      78.429999987653      50.000000000000
      2281    1       77.766194512558      69.904999987331      50.000000000000
      2282    1       80.719341145291      68.199999991640      50.000000000000
      2283    1       77.766194512558      73.314999989646      50.000000000000
      2284    1       80.719341145291      71.609999993956      50.000000000000
      2285    1       77.766194512558      76.724999991962      50.000000000000
      2286    1       80.719341145291      75.019999985337      50.000000000000
      2287    1       77.766194512558      80.134999994278      50.000000000000
      2288    1       80.719341145291      78.429999987653      50.000000000000
      2289    2       70.875519054402      68.199999991640      50.000000000000
      2290    2       73.828665676202      69.904999987331      50.000000000000
      2291    2       70.875519054402      71.609999993956      50.000000000000
      2292    2       73.828665676202      73.314999989646      50.000000000000
      2293    2       70.875519054402      75.019999985337      50.000000000000
      2294    2       73.828665676202      76.724999991962      50.000000000000
      2295    2       70.875519054402      78.429999987653      50.000000000000
      2296    2       73.828665676202      80.134999994278      50.000000000000
      2297    2       76.781812308936      68.199999991640      50.000000000000
      2298    2       79.734958930736      69.904999987331      50.000000000000
      2299    2       76.781812308936      71.609999993956      50.000000000000
      2300    2       79.734958930736      73.314999989646      50.000000000000
      2301    2       76.781812308936      75.019999985337      50.000000000000
      2302    2       79.734958930736      76.724999991962      50.000000000000
      2303    2       76.781812308936      78.429999987653      50.000000000000
      2304    2       79.734958930736      80.134999994278      50.000000000000
      2305    1       83.672487767091      69.904999987331      50.000000000000
      2306    1       86.625634399825      68.199999991640      50.000000000000
      2307    1       83.672487767091      73.314999989646      50.000000000000
      2308    1       86.625634399825      71.609999993956      50.000000000000
      2309    1       83.672487767091      76.724999991962      50.000000000000
      2310    1       86.625634399825      75.019999985337      50.000000000000
      2311    1       83.672487767091      80.134999994278      50.000000000000
      2312    1       86.625634399825      78.429999987653      50.000000000000
      2313    1       89.578781021625      69.904999987331      50.000000000000
      2314    1       92.531927654358      68.199999991640      50.000000000000
      2315    1       89.578781021625      73.314999989646      50.000000000000
      2316    1       92.531927654358      71.609999993956      50.000000000000
      2317    1       89.578781021625      76.724999991962      50.000000000000
      2318    1       92.531927654358      75.019999985337      50.000000000000
      2319    1       89.578781021625      80.134999994278      50.000000000000
      2320    1       92.531927654358      78.429999987653      50.000000000000
      2321    2       82.688105563469      68.199999991640      50.000000000000
      2322    2       85.641252185269      69.904999987331      50.000000000000
      2323    2       82.688105563469      71.609999993956      50.000000000000
      2324    2       85.641252185269      73.314999989646      50.000000000000
      2325    2       82.688105563469      75.019999985337      50.000000000000
      2326    2       85.641252185269      76.724999991962      50.000000000000
      2327    2       82.688105563469      78.429999987653      50.000000000000
      2328    2       85.641252185269      80.134999994278      50.000000000000
      2329    2       88.594398818003      68.199999991640      50.000000000000
      2330    2       91.547545439803      69.904999987331      50.000000000000
      2331    2       88.594398818003      71.609999993956      50.000000000000
      2332    2       91.547545439803      73.314999989646      50.000000000000
      2333    2       88.594398818003      75.019999985337      50.000000000000
      2334    2       91.547545439803      76.724999991962      50.000000000000
      2335    2       88.594398818003      78.429999987653      50.000000000000
      2336    2       91.547545439803      80.134999994278      50.000000000000
      2337    1       95.485074276158      69.904999987331      50.000000000000
      2338    1       98.438220908892      68.199999991640      50.000000000000
      2339    1       95.485074276158      73.314999989646      50.000000000000
      2340    1       98.438220908892      71.609999993956      50.000000000000
      2341    1       95.485074276158      76.724999991962      50.000000000000
      2342    1       98.438220908892      75.019999985337      50.000000000000
      2343    1       95.485074276158      80.134999994278      50.000000000000
      2344    1       98.438220908892      78.429999987653      50.000000000000
      2345    1      101.391367530692      69.904999987331      50.000000000000
      2346    1      104.344514163425      68.199999991640      50.000000000000
      2347    1      101.391367530692      73.314999989646      50.000000000000
      2348    1      104.344514163425      71.609999993956      50.000000000000
      2349    1      101.391367530692      76.724999991962      50.000000000000
      2350    1      104.344514163425      75.019999985337      50.000000000000
      2351    1      101.391367530692      80.134999994278      50.000000000000
      2352    1      104.344514163425      78.429999987653      50.000000000000
      2353    2       94.500692072536      68.199999991640      50.000000000000
      2354    2       97.453838694336      69.904999987331      50.000000000000
      2355    2       94.500692072536      71.609999993956      50.000000000000
      2356    2       97.453838694336      73.314999989646      50.000000000000
      2357    2       94.500692072536      75.019999985337      50.000000000000
      2358    2       97.453838694336      76.724999991962      50.000000000000
      2359    2       94.500692072536      78.429999987653      50.000000000000
      2360    2       97.453838694336      80.134999994278      50.000000000000
      2361    2      100.406985327070      68.199999991640      50.000000000000
      2362    2      103.360131948870      69.904999987331      50.000000000000
      2363    2      100.406985327070      71.609999993956      50.000000000000
      2364    2      103.360131948870      73.314999989646      50.000000000000
      2365    2      100.406985327070      75.019999985337      50.000000000000
      2366    2      103.360131948870      76.724999991962      50.000000000000
      2367    2      100.406985327070      78.429999987653      50.000000000000
      2368    2      103.360131948870      80.134999994278      50.000000000000
      2369    1      107.297660785225      69.904999987331      50.000000000000
      2370    1      110.250807417959      68.199999991640      50.000000000000
      2371    1      107.297660785225      73.314999989646      50.000000000000
      2372    1      110.250807417959      71.609999993956      50.000000000000
      2373    1      107.297660785225      76.724999991962      50.000000000000
      2374    1      110.250807417959      75.019999985337      50.000000000000
      2375    1      107.297660785225      80.134999994278      50.000000000000
      2376    1      110.250807417959      78.429999987653      50.000000000000
      2377    1      113.203954039759      69.904999987331      50.000000000000
      2378    1      116.157100672492      68.199999991640      50.000000000000
      2379    1      113.203954039759      73.314999989646      50.000000000000
      2380    1      116.157100672492      71.609999993956      50.000000000000
      2381    1      113.203954039759      76.724999991962      50.000000000000
      2382    1      116.157100672492      75.019999985337      50.000000000000
      2383    1      113.203954039759      80.134999994278      50.000000000000
      2384    1      116.157100672492      78.429999987653      50.000000000000
      2385    2      106.313278581603      68.199999991640      50.000000000000
      2386    2      109.266425203403      69.904999987331      50.000000000000
      2387    2      106.313278581603      71.609999993956      50.000000000000
      2388    2      109.266425203403      73.314999989646      50.000000000000
      2389    2      106.313278581603      75.019999985337      50.000000000000
      2390    2      109.266425203403      76.724999991962      50.000000000000
      2391    2      106.313278581603      78.429999987653      50.000000000000
      2392    2      109.266425203403      80.134999994278      50.000000000000
      2393    2      112.219571836137      68.199999991640      50.000000000000
      2394    2      115.172718457937      69.904999987331      50.000000000000
      2395    2      112.219571836137      71.609999993956      50.000000000000
      2396    2      115.172718457937      73.314999989646      50.000000000000
      2397    2      112.219571836137      75.019999985337      50.000000000000
      2398    2      115.172718457937      76.724999991962      50.000000000000
      2399    2      112.219571836137      78.429999987653      50.000000000000
      2400    2      115.172718457937      80.134999994278      50.000000000000
      2401    1      119.110247294292      69.904999987331      50.000000000000
      2402    1      122.063393927026      68.199999991640      50.000000000000
      2403    1      119.110247294292      73.314999989646      50.000000000000
      2404    1      122.063393927026      71.609999993956      50.000000000000
      2405    1      119.110247294292      76.724999991962      50.000000000000
      2406    1      122.063393927026      75.019999985337      50.000000000000
      2407    1      119.110247294292      80.134999994278      50.000000000000
      2408    1      122.063393927026      78.429999987653      50.000000000000
      2409    1      125.016540548826      69.904999987331      50.000000000000
      2410    1      127.969687181559      68.199999991640      50.000000000000
      2411    1      125.016540548826      73.314999989646      50.000000000000
      2412    1      127.969687181559      71.609999993956      50.000000000000
      2413    1      125.016540548826      76.724999991962      50.000000000000
      2414    1      127.969687181559      75.019999985337      50.000000000000
      2415    1      125.016540548826      80.134999994278      50.000000000000
      2416    1      127.969687181559      78.429999987653      50.000000000000
      2417    2      118.125865090670      68.199999991640      50.000000000000
      2418    2      121.079011712470      69.904999987331      50.000000000000
      2419    2      118.125865090670      71.609999993956      50.000000000000
      2420    2      121.079011712470      73.314999989646      50.000000000000
      2421    2      118.125865090670      75.019999985337      50.000000000000
      2422    2      121.079011712470      76.724999991962      50.000000000000
      2423    2      118.125865090670      78.429999987653      50.000000000000
      2424    2      121.079011712470      80.134999994278      50.000000000000
      2425    2      124.032158345204      68.199999991640      50.000000000000
      2426    2      126.985304967004      69.904999987331      50.000000000000
      2427    2      124.032158345204      71.609999993956      50.000000000000
      2428    2      126.985304967004      73.314999989646      50.000000000000
      2429    2      124.032158345204      75.019999985337      50.000000000000
      2430    2      126.985304967004      76.724999991962      50.000000000000
      2431    2      124.032158345204      78.429999987653      50.000000000000
      2432    2      126.985304967004      80.134999994278      50.000000000000
      2433    1      130.922833803359      69.904999987331      50.000000000000
      2434    1      133.875980436093      68.199999991640      50.000000000000
      2435    1      130.922833803359      73.314999989646      50.000000000000
      2436    1      133.875980436093      71.609999993956      50.000000000000
      2437    1      130.922833803359      76.724999991962      50.000000000000
      2438    1      133.875980436093      75.019999985337      50.000000000000
      2439    1      130.922833803359      80.134999994278      50.000000000000
      2440    1      133.875980436093      78.429999987653      50.000000000000
      2441    1      136.829127057893      69.904999987331      50.000000000000
      2442    1      139.782273690626      68.199999991640      50.000000000000
      2443    1      136.829127057893      73.314999989646      50.000000000000
      2444    1      139.782273690626      71.609999993956      50.000000000000
      2445    1      136.829127057893      76.724999991962      50.000000000000
      2446    1      139.782273690626      75.019999985337      50.000000000000
      2447    1      136.829127057893      80.134999994278      50.000000000000
      2448    1      139.782273690626      78.429999987653      50.000000000000
      2449    2      129.938451599737      68.199999991640      50.000000000000
      2450    2      132.891598221537      69.904999987331      50.000000000000
      2451    2      129.938451599737      71.609999993956      50.000000000000
      2452    2      132.891598221537      73.314999989646      50.000000000000
      2453    2      129.938451599737      75.019999985337      50.000000000000
      2454    2      132.891598221537      76.724999991962      50.000000000000
      2455    2      129.938451599737      78.429999987653      50.000000000000
      2456    2      132.891598221537      80.134999994278      50.000000000000
      2457    2      135.844744854271      68.199999991640      50.000000000000
      2458    2      138.797891476071      69.904999987331      50.000000000000
      2459    2      135.844744854271      71.609999993956      50.000000000000
      2460    2      138.797891476071      73.314999989646      50.000000000000
      2461    2      135.844744854271      75.019999985337      50.000000000000
      2462    2      138.797891476071      76.724999991962      50.000000000000
      2463    2      135.844744854271      78.429999987653      50.000000000000
      2464    2      138.797891476071      80.134999994278      50.000000000000
      2465    1      142.735420312426      69.904999987331      50.000000000000
      2466    1      145.688566945160      68.199999991640      50.000000000000
      2467    1      142.735420312426      73.314999989646      50.000000000000
      2468    1      145.688566945160      71.609999993956      50.000000000000
      2469    1      142.735420312426      76.724999991962      50.000000000000
      2470    1      145.688566945160      75.019999985337      50.000000000000
      2471    1      142.735420312426      80.134999994278      50.000000000000
      2472    1      145.688566945160      78.429999987653      50.000000000000
      2473    1      148.641713566960      69.904999987331      50.000000000000
      2474    1      151.594860199693      68.199999991640      50.000000000000
      2475    1      148.641713566960      73.314999989646      50.000000000000
      2476    1      151.594860199693      71.609999993956      50.000000000000
      2477    1      148.641713566960      76.724999991962      50.000000000000
      2478    1      151.594860199693      75.019999985337      50.000000000000
      2479    1      148.641713566960      80.134999994278      50.000000000000
      2480    1      151.594860199693      78.429999987653      50.000000000000
      2481    2      141.751038108804      68.199999991640      50.000000000000
      2482    2      144.704184730604      69.904999987331      50.000000000000
      2483    2      141.751038108804      71.609999993956      50.000000000000
      2484    2      144.704184730604      73.314999989646      50.000000000000
      2485    2      141.751038108804      75.019999985337      50.000000000000
      2486    2      144.704184730604      76.724999991962      50.000000000000
      2487    2      141.751038108804      78.429999987653      50.000000000000
      2488    2      144.704184730604      80.134999994278      50.000000000000
      2489    2      147.657331363338      68.199999991640      50.000000000000
      2490    2      150.610477985138      69.904999987331      50.000000000000
      2491    2      147.657331363338      71.609999993956      50.000000000000
      2492    2      150.610477985138      73.314999989646      50.000000000000
      2493    2      147.657331363338      75.019999985337      50.000000000000
      2494    2      150.610477985138      76.724999991962      50.000000000000
      2495    2      147.657331363338      78.429999987653      50.000000000000
      2496    2      150.610477985138      80.134999994278      50.000000000000
      2497    1        0.984382203622      83.544999985659      50.000000000000
      2498    1        3.937528836356      81.839999989968      50.000000000000
      2499    1        0.984382203622      86.954999987974      50.000000000000
      2500    1        3.937528836356      85.249999992284      50.000000000000
      2501    1        0.984382203622      90.364999990290      50.000000000000
      2502    1        3.937528836356      88.659999983665      50.000000000000
      2503    1        0.984382203622      93.774999992606      50.000000000000
      2504    1        3.937528836356      92.069999985981      50.000000000000
      2505    1        6.890675458156      83.544999985659      50.000000000000
      2506    1        9.843822090889      81.839999989968      50.000000000000
      2507    1        6.890675458156      86.954999987974      50.000000000000
      2508    1        9.843822090889      85.249999992284      50.000000000000
      2509    1        6.890675458156      90.364999990290      50.000000000000
      2510    1        9.843822090889      88.659999983665      50.000000000000
      2511    1        6.890675458156      93.774999992606      50.000000000000
      2512    1        9.843822090889      92.069999985981      50.000000000000
      2513    2        0.000000000000      81.839999989968      50.000000000000
      2514    2        2.953146621800      83.544999985659      50.000000000000
      2515    2        0.000000000000      85.249999992284      50.000000000000
      2516    2        2.953146621800      86.954999987974      50.000000000000
      2517    2        0.000000000000      88.659999983665      50.000000000000
      2518    2        2.953146621800      90.364999990290      50.000000000000
      2519    2        0.000000000000      92.069999985981      50.000000000000
      2520    2        2.953146621800      93.774999992606      50.000000000000
      2521    2        5.906293254534      81.839999989968      50.000000000000
      2522    2        8.859439876334      83.544999985659      50.000000000000
      2523    2        5.906293254534      85.249999992284      50.000000000000
      2524    2        8.859439876334      86.954999987974      50.000000000000
      2525    2        5.906293254534      88.659999983665      50.000000000000
      2526    2        8.859439876334      90.364999990290      50.000000000000
      2527    2        5.906293254534      92.069999985981      50.000000000000
      2528    2        8.859439876334      93.774999992606      50.000000000000
      2529    1       12.796968712689      83.544999985659      50.000000000000
      2530    1       15.750115345423      81.839999989968      50.000000000000
      2531    1       12.796968712689      86.954999987974      50.000000000000
      2532    1       15.750115345423      85.249999992284      50.000000000000
      2533    1       12.796968712689      90.364999990290      50.000000000000
      2534    1       15.750115345423      88.659999983665      50.000000000000
      2535    1       12.796968712689      93.774999992606      50.000000000000
      2536    1       15.750115345423      92.069999985981      50.000000000000
      2537    1       18.703261967223      83.544999985659      50.000000000000
      2538    1       21.656408599956      81.839999989968      50.000000000000
      2539    1       18.703261967223      86.954999987974      50.000000000000
      2540    1       21.656408599956      85.249999992284      50.000000000000
      2541    1       18.703261967223      90.364999990290      50.000000000000
      2542    1       21.656408599956      88.659999983665      50.000000000000
      2543    1       18.703261967223      93.774999992606      50.000000000000
      2544    1       21.656408599956      92.069999985981      50.000000000000
      2545    2       11.812586509067      81.839999989968      50.000000000000
      2546    2       14.765733130867      83.544999985659      50.000000000000
      2547    2       11.812586509067      85.249999992284      50.000000000000
      2548    2       14.765733130867      86.954999987974      50.000000000000
      2549    2       11.812586509067      88.659999983665      50.000000000000
      2550    2       14.765733130867      90.364999990290      50.000000000000
      2551    2       11.812586509067      92.069999985981      50.000000000000
      2552    2       14.765733130867      93.774999992606      50.000000000000
      2553    2       17.718879763601      81.839999989968      50.000000000000
      2554    2       20.672026385401      83.544999985659      50.000000000000
      2555    2       17.718879763601      85.249999992284      50.000000000000
      2556    2       20.672026385401      86.954999987974      50.000000000000
      2557    2       17.718879763601      88.659999983665      50.000000000000
      2558    2       20.672026385401      90.364999990290      50.000000000000
      2559    2       17.718879763601      92.069999985981      50.000000000000
      2560    2       20.672026385401      93.774999992606      50.000000000000
      2561    1       24.609555221756      83.544999985659      50.000000000000
      2562    1       27.562701854490      81.839999989968      50.000000000000
      2563    1       24.609555221756      86.954999987974      50.000000000000
      2564    1       27.562701854490      85.249999992284      50.000000000000
      2565    1       24.609555221756      90.364999990290      50.000000000000
      2566    1       27.562701854490      88.659999983665      50.000000000000
      2567    1       24.609555221756      93.774999992606      50.000000000000
      2568    1       27.562701854490      92.069999985981      50.000000000000
      2569    1       30.515848476290      83.544999985659      50.000000000000
      2570    1       33.468995109023      81.839999989968      50.000000000000
      2571    1       30.515848476290      86.954999987974      50.000000000000
      2572    1       33.468995109023      85.249999992284      50.000000000000
      2573    1       30.515848476290      90.364999990290      50.000000000000
      2574    1       33.468995109023      88.659999983665      50.000000000000
      2575    1       30.515848476290      93.774999992606      50.000000000000
      2576    1       33.468995109023      92.069999985981      50.000000000000
      2577    2       23.625173018134      81.839999989968      50.000000000000
      2578    2       26.578319639934      83.544999985659      50.000000000000
      2579    2       23.625173018134      85.249999992284      50.000000000000
      2580    2       26.578319639934      86.954999987974      50.000000000000
      2581    2       23.625173018134      88.659999983665      50.000000000000
      2582    2       26.578319639934      90.364999990290      50.000000000000
      2583    2       23.625173018134      92.069999985981      50.000000000000
      2584    2       26.578319639934      93.774999992606      50.000000000000
      2585    2       29.531466272668      81.839999989968      50.000000000000
      2586    2       32.484612894468      83.544999985659      50.000000000000
      2587    2       29.531466272668      85.249999992284      50.000000000000
      2588    2       32.484612894468      86.954999987974      50.000000000000
      2589    2       29.531466272668      88.659999983665      50.000000000000
      2590    2       32.484612894468      90.364999990290      50.000000000000
      2591    2       29.531466272668      92.069999985981      50.000000000000
      2592    2       32.484612894468      93.774999992606      50.000000000000
      2593    1       36.422141730823      83.544999985659      50.000000000000
      2594    1       39.375288363557      81.839999989968      50.000000000000
      2595    1       36.422141730823      86.954999987974      50.000000000000
      2596    1       39.375288363557      85.249999992284      50.000000000000
      2597    1       36.422141730823      90.364999990290      50.000000000000
      2598    1       39.375288363557      88.659999983665      50.000000000000
      2599    1       36.422141730823      93.774999992606      50.000000000000
      2600    1       39.375288363557      92.069999985981      50.000000000000
      2601    1       42.328434985357      83.544999985659      50.000000000000
      2602    1       45.281581618090      81.839999989968      50.000000000000
      2603    1       42.328434985357      86.954999987974      50.000000000000
      2604    1       45.281581618090      85.249999992284      50.000000000000
      2605    1       42.328434985357      90.364999990290      50.000000000000
      2606    1       45.281581618090      88.659999983665      50.000000000000
      2607    1       42.328434985357      93.774999992606      50.000000000000
      2608    1       45.281581618090      92.069999985981      50.000000000000
      2609    2       35.437759527201      81.839999989968      50.000000000000
      2610    2       38.390906149001      83.544999985659      50.000000000000
      2611    2       35.437759527201      85.249999992284      50.000000000000
      2612    2       38.390906149001      86.954999987974      50.000000000000
      2613    2       35.437759527201      88.659999983665      50.000000000000
      2614    2       38.390906149001      90.364999990290      50.000000000000
      2615    2       35.437759527201      92.069999985981      50.000000000000
      2616    2       38.390906149001      93.774999992606      50.000000000000
      2617    2       41.344052781735      81.839999989968      50.000000000000
      2618    2       44.297199403535      83.544999985659      50.000000000000
      2619    2       41.344052781735      85.249999992284      50.000000000000
      2620    2       44.297199403535      86.954999987974      50.000000000000
      2621    2       41.344052781735      88.659999983665      50.000000000000
      2622    2       44.297199403535      90.364999990290      50.000000000000
      2623    2       41.344052781735      92.069999985981      50.000000000000
      2624    2       44.297199403535      93.774999992606      50.000000000000
      2625    1       48.234728239890      83.544999985659      50.000000000000
      2626    1       51.187874872624      81.839999989968      50.000000000000
      2627    1       48.234728239890      86.954999987974      50.000000000000
      2628    1       51.187874872624      85.249999992284      50.000000000000
      2629    1       48.234728239890      90.364999990290      50.000000000000
      2630    1       51.187874872624      88.659999983665      50.000000000000
      2631    1       48.234728239890      93.774999992606      50.000000000000
      2632    1       51.187874872624      92.069999985981      50.000000000000
      2633    1       54.141021494424      83.544999985659      50.000000000000
      2634    1       57.094168127157      81.839999989968      50.000000000000
      2635    1       54.141021494424      86.954999987974      50.000000000000
      2636    1       57.094168127157      85.249999992284      50.000000000000
      2637    1       54.141021494424      90.364999990290      50.000000000000
      2638    1       57.094168127157      88.659999983665      50.000000000000
      2639    1       54.141021494424      93.774999992606      50.000000000000
      2640    1       57.094168127157      92.069999985981      50.000000000000
      2641    2       47.250346036268      81.839999989968      50.000000000000
      2642    2       50.203492658068      83.544999985659      50.000000000000
      2643    2       47.250346036268      85.249999992284      50.000000000000
      2644    2       50.203492658068      86.954999987974      50.000000000000
      2645    2       47.250346036268      88.659999983665      50.000000000000
      2646    2       50.203492658068      90.364999990290      50.000000000000
      2647    2       47.250346036268      92.069999985981      50.000000000000
      2648    2       50.203492658068      93.774999992606      50.000000000000
      2649    2       53.156639290802      81.839999989968      50.000000000000
      2650    2       56.109785912602      83.544999985659      50.000000000000
      2651    2       53.156639290802      85.249999992284      50.000000000000
      2652    2       56.109785912602      86.954999987974      50.000000000000
      2653    2       53.156639290802      88.659999983665      50.000000000000
      2654    2       56.109785912602      90.364999990290      50.000000000000
      2655    2       53.156639290802      92.069999985981      50.000000000000
      2656    2       56.109785912602      93.774999992606      50.000000000000
      2657    1       60.047314748957      83.544999985659      50.000000000000
      2658    1       63.000461381691      81.839999989968      50.000000000000
      2659    1       60.047314748957      86.954999987974      50.000000000000
      2660    1       63.000461381691      85.249999992284      50.000000000000
      2661    1       60.047314748957      90.364999990290      50.000000000000
      2662    1       63.000461381691      88.659999983665      50.000000000000
      2663    1       60.047314748957      93.774999992606      50.000000000000
      2664    1       63.000461381691      92.069999985981      50.000000000000
      2665    1       65.953608003491      83.544999985659      50.000000000000
      2666    1       68.906754636224      81.839999989968      50.000000000000
      2667    1       65.953608003491      86.954999987974      50.000000000000
      2668    1       68.906754636224      85.249999992284      50.000000000000
      2669    1       65.953608003491      90.364999990290      50.000000000000
      2670    1       68.906754636224      88.659999983665      50.000000000000
      2671    1       65.953608003491      93.774999992606      50.000000000000
      2672    1       68.906754636224      92.069999985981      50.000000000000
      2673    2       59.062932545335      81.839999989968      50.000000000000
      2674    2       62.016079167135      83.544999985659      50.000000000000
      2675    2       59.062932545335      85.249999992284      50.000000000000
      2676    2       62.016079167135      86.954999987974      50.000000000000
      2677    2       59.062932545335      88.659999983665      50.000000000000
      2678    2       62.016079167135      90.364999990290      50.000000000000
      2679    2       59.062932545335      92.069999985981      50.000000000000
      2680    2       62.016079167135      93.774999992606      50.000000000000
      2681    2       64.969225799869      81.839999989968      50.000000000000
      2682    2       67.922372421669      83.544999985659      50.000000000000
      2683    2       64.969225799869      85.249999992284      50.000000000000
      2684    2       67.922372421669      86.954999987974      50.000000000000
      2685    2       64.969225799869      88.659999983665      50.000000000000
      2686    2       67.922372421669      90.364999990290      50.000000000000
      2687    2       64.969225799869      92.069999985981      50.000000000000
      2688    2       67.922372421669      93.774999992606      50.000000000000
      2689    1       71.859901258024      83.544999985659      50.000000000000
      2690    1       74.813047890758      81.839999989968      50.000000000000
      2691    1       71.859901258024      86.954999987974      50.000000000000
      2692    1       74.813047890758      85.249999992284      50.000000000000
      2693    1       71.859901258024      90.364999990290      50.000000000000
      2694    1       74.813047890758      88.659999983665      50.000000000000
      2695    1       71.859901258024      93.774999992606      50.000000000000
      2696    1       74.813047890758      92.069999985981      50.000000000000
      2697    1       77.766194512558      83.544999985659      50.000000000000
      2698    1       80.719341145291      81.839999989968      50.000000000000
      2699    1       77.766194512558      86.954999987974      50.000000000000
      2700    1       80.719341145291      85.249999992284      50.000000000000
      2701    1       77.766194512558      90.364999990290      50.000000000000
      2702    1       80.719341145291      88.659999983665      50.000000000000
      2703    1       77.766194512558      93.774999992606      50.000000000000
      2704    1       80.719341145291      92.069999985981      50.000000000000
      2705    2       70.875519054402      81.839999989968      50.000000000000
      2706    2       73.828665676202      83.544999985659      50.000000000000
      2707    2       70.875519054402      85.249999992284      50.000000000000
      2708    2       73.828665676202      86.954999987974      50.000000000000
      2709    2       70.875519054402      88.659999983665      50.000000000000
      2710    2       73.828665676202      90.364999990290      50.000000000000
      2711    2       70.875519054402      92.069999985981      50.000000000000
      2712    2       73.828665676202      93.774999992606      50.000000000000
      2713    2       76.781812308936      81.839999989968      50.000000000000
      2714    2       79.734958930736      83.544999985659      50.000000000000
      2715    2       76.781812308936      85.249999992284      50.000000000000
      2716    2       79.734958930736      86.954999987974      50.000000000000
      2717    2       76.781812308936      88.659999983665      50.000000000000
      2718    2       79.734958930736      90.364999990290      50.000000000000
      2719    2       76.781812308936      92.069999985981      50.000000000000
      2720    2       79.734958930736      93.774999992606      50.000000000000
      2721    1       83.672487767091      83.544999985659      50.000000000000
      2722    1       86.625634399825      81.839999989968      50.000000000000
      2723    1       83.672487767091      86.954999987974      50.000000000000
      2724    1       86.625634399825      85.249999992284      50.000000000000
      2725    1       83.672487767091      90.364999990290      50.000000000000
      2726    1       86.625634399825      88.659999983665      50.000000000000
      2727    1       83.672487767091      93.774999992606      50.000000000000
      2728    1       86.625634399825      92.069999985981      50.000000000000
      2729    1       89.578781021625      83.544999985659      50.000000000000
      2730    1       92.531927654358      81.839999989968      50.000000000000
      2731    1       89.578781021625      86.954999987974      50.000000000000
      2732    1       92.531927654358      85.249999992284      50.000000000000
      2733    1       89.578781021625      90.364999990290      50.000000000000
      2734    1       92.531927654358      88.659999983665      50.000000000000
      2735    1       89.578781021625      93.774999992606      50.000000000000
      2736    1       92.531927654358      92.069999985981      50.000000000000
      2737    2       82.688105563469      81.839999989968      50.000000000000
      2738    2       85.641252185269      83.544999985659      50.000000000000
      2739    2       82.688105563469      85.249999992284      50.000000000000
      2740    2       85.641252185269      86.954999987974      50.000000000000
      2741    2       82.688105563469      88.659999983665      50.000000000000
      2742    2       85.641252185269      90.364999990290      50.000000000000
      2743    2       82.688105563469      92.069999985981      50.000000000000
      2744    2       85.641252185269      93.774999992606      50.000000000000
      2745    2       88.594398818003      81.839999989968      50.000000000000
      2746    2       91.547545439803      83.544999985659      50.000000000000
      2747    2       88.594398818003      85.249999992284      50.000000000000
      2748    2       91.547545439803      86.954999987974      50.000000000000
      2749    2       88.594398818003      88.659999983665      50.000000000000
      2750    2       91.547545439803      90.364999990290      50.000000000000
      2751    2       88.594398818003      92.069999985981      50.000000000000
      2752    2       91.547545439803      93.774999992606      50.000000000000
      2753    1       95.485074276158      83.544999985659      50.000000000000
      2754    1       98.438220908892      81.839999989968      50.000000000000
      2755    1       95.485074276158      86.954999987974      50.000000000000
      2756    1       98.438220908892      85.249999992284      50.000000000000
      2757    1       95.485074276158      90.364999990290      50.000000000000
      2758    1       98.438220908892      88.659999983665      50.000000000000
      2759    1       95.485074276158      93.774999992606      50.000000000000
      2760    1       98.438220908892      92.069999985981      50.000000000000
      2761    1      101.391367530692      83.544999985659      50.000000000000
      2762    1      104.344514163425      81.839999989968      50.000000000000
      2763    1      101.391367530692      86.954999987974      50.000000000000
      2764    1      104.344514163425      85.249999992284      50.000000000000
      2765    1      101.391367530692      90.364999990290      50.000000000000
      2766    1      104.344514163425      88.659999983665      50.000000000000
      2767    1      101.391367530692      93.774999992606      50.000000000000
      2768    1      104.344514163425      92.069999985981      50.000000000000
      2769    2       94.500692072536      81.839999989968      50.000000000000
      2770    2       97.453838694336      83.544999985659      50.000000000000
      2771    2       94.500692072536      85.249999992284      50.000000000000
      2772    2       97.453838694336      86.954999987974      50.000000000000
      2773    2       94.500692072536      88.659999983665      50.000000000000
      2774    2       97.453838694336      90.364999990290      50.000000000000
      2775    2       94.500692072536      92.069999985981      50.000000000000
      2776    2       97.453838694336      93.774999992606      50.000000000000
      2777    2      100.406985327070      81.839999989968      50.000000000000
      2778    2      103.360131948870      83.544999985659      50.000000000000
      2779    2      100.406985327070      85.249999992284      50.000000000000
      2780    2      103.360131948870      86.954999987974      50.000000000000
      2781    2      100.406985327070      88.659999983665      50.000000000000
      2782    2      103.360131948870      90.364999990290      50.000000000000
      2783    2      100.406985327070      92.069999985981      50.000000000000
      2784    2      103.360131948870      93.774999992606      50.000000000000
      2785    1      107.297660785225      83.544999985659      50.000000000000
      2786    1      110.250807417959      81.839999989968      50.000000000000
      2787    1      107.297660785225      86.954999987974      50.000000000000
      2788    1      110.250807417959      85.249999992284      50.000000000000
      2789    1      107.297660785225      90.364999990290      50.000000000000
      2790    1      110.250807417959      88.659999983665      50.000000000000
      2791    1      107.297660785225      93.774999992606      50.000000000000
      2792    1      110.250807417959      92.069999985981      50.000000000000
      2793    1      113.203954039759      83.544999985659      50.000000000000
      2794    1      116.157100672492      81.839999989968      50.000000000000
      2795    1      113.203954039759      86.954999987974      50.000000000000
      2796    1      116.157100672492      85.249999992284      50.000000000000
      2797    1      113.203954039759      90.364999990290      50.000000000000
      2798    1      116.157100672492      88.659999983665      50.000000000000
      2799    1      113.203954039759      93.774999992606      50.000000000000
      2800    1      116.157100672492      92.069999985981      50.000000000000
      2801    2      106.313278581603      81.839999989968      50.000000000000
      2802    2      109.266425203403      83.544999985659      50.000000000000
      2803    2      106.313278581603      85.249999992284      50.000000000000
      2804    2      109.266425203403      86.954999987974      50.000000000000
      2805    2      106.313278581603      88.659999983665      50.000000000000
      2806    2      109.266425203403      90.364999990290      50.000000000000
      2807    2      106.313278581603      92.069999985981      50.000000000000
      2808    2      109.266425203403      93.774999992606      50.000000000000
      2809    2      112.219571836137      81.839999989968      50.000000000000
      2810    2      115.172718457937      83.544999985659      50.000000000000
      2811    2      112.219571836137      85.249999992284      50.000000000000
      2812    2      115.172718457937      86.954999987974      50.000000000000
      2813    2      112.219571836137      88.659999983665      50.000000000000
      2814    2      115.172718457937      90.364999990290      50.000000000000
      2815    2      112.219571836137      92.069999985981      50.000000000000
      2816    2      115.172718457937      93.774999992606      50.000000000000
      2817    1      119.110247294292      83.544999985659      50.000000000000
      2818    1      122.063393927026      81.839999989968      50.000000000000
      2819    1      119.110247294292      86.954999987974      50.000000000000
      2820    1      122.063393927026      85.249999992284      50.000000000000
      2821    1      119.110247294292      90.364999990290      50.000000000000
      2822    1      122.063393927026      88.659999983665      50.000000000000
      2823    1      119.110247294292      93.774999992606      50.000000000000
      2824    1      122.063393927026      92.069999985981      50.000000000000
      2825    1      125.016540548826      83.544999985659      50.000000000000
      2826    1      127.969687181559      81.839999989968      50.000000000000
      2827    1      125.016540548826      86.954999987974      50.000000000000
      2828    1      127.969687181559      85.249999992284      50.000000000000
      2829    1      125.016540548826      90.364999990290      50.000000000000
      2830    1      127.969687181559      88.659999983665      50.000000000000
      2831    1      125.016540548826      93.774999992606      50.000000000000
      2832    1      127.969687181559      92.069999985981      50.000000000000
      2833    2      118.125865090670      81.839999989968      50.000000000000
      2834    2      121.079011712470      83.544999985659      50.000000000000
      2835    2      118.125865090670      85.249999992284      50.000000000000
      2836    2      121.079011712470      86.954999987974      50.000000000000
      2837    2      118.125865090670      88.659999983665      50.000000000000
      2838    2      121.079011712470      90.364999990290      50.000000000000
      2839    2      118.125865090670      92.069999985981      50.000000000000
      2840    2      121.079011712470      93.774999992606      50.000000000000
      2841    2      124.032158345204      81.839999989968      50.000000000000
      2842    2      126.985304967004      83.544999985659      50.000000000000
      2843    2      124.032158345204      85.249999992284      50.000000000000
      2844    2      126.985304967004      86.954999987974      50.000000000000
      2845    2      124.032158345204      88.659999983665      50.000000000000
      2846    2      126.985304967004      90.364999990290      50.000000000000
      2847    2      124.032158345204      92.069999985981      50.000000000000
      2848    2      126.985304967004      93.774999992606      50.000000000000
      2849    1      130.922833803359      83.544999985659      50.000000000000
      2850    1      133.875980436093      81.839999989968      50.000000000000
      2851    1      130.922833803359      86.954999987974      50.000000000000
      2852    1      133.875980436093      85.249999992284      50.000000000000
      2853    1      130.922833803359      90.364999990290      50.000000000000
      2854    1      133.875980436093      88.659999983665      50.000000000000
      2855    1      130.922833803359      93.774999992606      50.000000000000
      2856    1      133.875980436093      92.069999985981      50.000000000000
      2857    1      136.829127057893      83.544999985659      50.000000000000
      2858    1      139.782273690626      81.839999989968      50.000000000000
      2859    1      136.829127057893      86.954999987974      50.000000000000
      2860    1      139.782273690626      85.249999992284      50.000000000000
      2861    1      136.829127057893      90.364999990290      50.000000000000
      2862    1      139.782273690626      88.659999983665      50.000000000000
      2863    1      136.829127057893      93.774999992606      50.000000000000
      2864    1      139.782273690626      92.069999985981      50.000000000000
      2865    2      129.938451599737      81.839999989968      50.000000000000
      2866    2      132.891598221537      83.544999985659      50.000000000000
      2867    2      129.938451599737      85.249999992284      50.000000000000
      2868    2      132.891598221537      86.954999987974      50.000000000000
      2869    2      129.938451599737      88.659999983665      50.000000000000
      2870    2      132.891598221537      90.364999990290      50.000000000000
      2871    2      129.938451599737      92.069999985981      50.000000000000
      2872    2      132.891598221537      93.774999992606      50.000000000000
      2873    2      135.844744854271      81.839999989968      50.000000000000
      2874    2      138.797891476071      83.544999985659      50.000000000000
      2875    2      135.844744854271      85.249999992284      50.000000000000
      2876    2      138.797891476071      86.954999987974      50.000000000000
      2877    2      135.844744854271      88.659999983665      50.000000000000
      2878    2      138.797891476071      90.364999990290      50.000000000000
      2879    2      135.844744854271      92.069999985981      50.000000000000
      2880    2      138.797891476071      93.774999992606      50.000000000000
      2881    1      142.735420312426      83.544999985659      50.000000000000
      2882    1      145.688566945160      81.839999989968      50.000000000000
      2883    1      142.735420312426      86.954999987974      50.000000000000
      2884    1      145.688566945160      85.249999992284      50.000000000000
      2885    1      142.735420312426      90.364999990290      50.000000000000
      2886    1      145.688566945160      88.659999983665      50.000000000000
      2887    1      142.735420312426      93.774999992606      50.000000000000
      2888    1      145.688566945160      92.069999985981      50.000000000000
      2889    1      148.641713566960      83.544999985659      50.000000000000
      2890    1      151.594860199693      81.839999989968      50.000000000000
      2891    1      148.641713566960      86.954999987974      50.000000000000
      2892    1      151.594860199693      85.249999992284      50.000000000000
      2893    1      148.641713566960      90.364999990290      50.000000000000
      2894    1      151.594860199693      88.659999983665      50.000000000000
      2895    1      148.641713566960      93.774999992606      50.000000000000
      2896    1      151.594860199693      92.069999985981      50.000000000000
      2897    2      141.751038108804      81.839999989968      50.000000000000
      2898    2      144.704184730604      83.544999985659      50.000000000000
      2899    2      141.751038108804      85.249999992284      50.000000000000
      2900    2      144.704184730604      86.954999987974      50.000000000000
      2901    2      141.751038108804      88.659999983665      50.000000000000
      2902    2      144.704184730604      90.364999990290      50.000000000000
      2903    2      141.751038108804      92.069999985981      50.000000000000
      2904    2      144.704184730604      93.774999992606      50.000000000000
      2905    2      147.657331363338      81.839999989968      50.000000000000
      2906    2      150.610477985138      83.544999985659      50.000000000000
      2907    2      147.657331363338      85.249999992284      50.000000000000
      2908    2      150.610477985138      86.954999987974      50.000000000000
      2909    2      147.657331363338      88.659999983665      50.000000000000
      2910    2      150.610477985138      90.364999990290      50.000000000000
      2911    2      147.657331363338      92.069999985981      50.000000000000
      2912    2      150.610477985138      93.774999992606      50.000000000000
      2913    1        0.984382203622      97.184999983987      50.000000000000
      2914    1        3.937528836356      95.479999988296      50.000000000000
      2915    1        0.984382203622     100.594999986302      50.000000000000
      2916    1        3.937528836356      98.889999990612      50.000000000000
      2917    1        0.984382203622     104.004999988618      50.000000000000
      2918    1        3.937528836356     102.299999981993      50.000000000000
      2919    1        0.984382203622     107.414999990934      50.000000000000
      2920    1        3.937528836356     105.709999984309      50.000000000000
      2921    1        6.890675458156      97.184999983987      50.000000000000
      2922    1        9.843822090889      95.479999988296      50.000000000000
      2923    1        6.890675458156     100.594999986302      50.000000000000
      2924    1        9.843822090889      98.889999990612      50.000000000000
      2925    1        6.890675458156     104.004999988618      50.000000000000
      2926    1        9.843822090889     102.299999981993      50.000000000000
      2927    1        6.890675458156     107.414999990934      50.000000000000
      2928    1        9.843822090889     105.709999984309      50.000000000000
      2929    2        0.000000000000      95.479999988296      50.000000000000
      2930    2        2.953146621800      97.184999983987      50.000000000000
      2931    2        0.000000000000      98.889999990612      50.000000000000
      2932    2        2.953146621800     100.594999986302      50.000000000000
      2933    2        0.000000000000     102.299999981993      50.000000000000
      2934    2        2.953146621800     104.004999988618      50.000000000000
      2935    2        0.000000000000     105.709999984309      50.000000000000
      2936    2        2.953146621800     107.414999990934      50.000000000000
      2937    2        5.906293254534      95.479999988296      50.000000000000
      2938    2        8.859439876334      97.184999983987      50.000000000000
      2939    2        5.906293254534      98.889999990612      50.000000000000
      2940    2        8.859439876334     100.594999986302      50.000000000000
      2941    2        5.906293254534     102.299999981993      50.000000000000
      2942    2        8.859439876334     104.004999988618      50.000000000000
      2943    2        5.906293254534     105.709999984309      50.000000000000
      2944    2        8.859439876334     107.414999990934      50.000000000000
      2945    1       12.796968712689      97.184999983987      50.000000000000
      2946    1       15.750115345423      95.479999988296      50.000000000000
      2947    1       12.796968712689     100.594999986302      50.000000000000
      2948    1       15.750115345423      98.889999990612      50.000000000000
      2949    1       12.796968712689     104.004999988618      50.000000000000
      2950    1       15.750115345423     102.299999981993      50.000000000000
      2951    1       12.796968712689     107.414999990934      50.000000000000
      2952    1       15.750115345423     105.709999984309      50.000000000000
      2953    1       18.703261967223      97.184999983987      50.000000000000
      2954    1       21.656408599956      95.479999988296      50.000000000000
      2955    1       18.703261967223     100.594999986302      50.000000000000
      2956    1       21.656408599956      98.889999990612      50.000000000000
      2957    1       18.703261967223     104.004999988618      50.000000000000
      2958    1       21.656408599956     102.299999981993      50.000000000000
      2959    1       18.703261967223     107.414999990934      50.000000000000
      2960    1       21.656408599956     105.709999984309      50.000000000000
      2961    2       11.812586509067      95.479999988296      50.000000000000
      2962    2       14.765733130867      97.184999983987      50.000000000000
      2963    2       11.812586509067      98.889999990612      50.000000000000
      2964    2       14.765733130867     100.594999986302      50.000000000000
      2965    2       11.812586509067     102.299999981993      50.000000000000
      2966    2       14.765733130867     104.004999988618      50.000000000000
      2967    2       11.812586509067     105.709999984309      50.000000000000
      2968    2       14.765733130867     107.414999990934      50.000000000000
      2969    2       17.718879763601      95.479999988296      50.000000000000
      2970    2       20.672026385401      97.184999983987      50.000000000000
      2971    2       17.718879763601      98.889999990612      50.000000000000
      2972    2       20.672026385401     100.594999986302      50.000000000000
      2973    2       17.718879763601     102.299999981993      50.000000000000
      2974    2       20.672026385401     104.004999988618      50.000000000000
      2975    2       17.718879763601     105.709999984309      50.000000000000
      2976    2       20.672026385401     107.414999990934      50.000000000000
      2977    1       24.609555221756      97.184999983987      50.000000000000
      2978    1       27.562701854490      95.479999988296      50.000000000000
      2979    1       24.609555221756     100.594999986302      50.000000000000
      2980    1       27.562701854490      98.889999990612      50.000000000000
      2981    1       24.609555221756     104.004999988618      50.000000000000
      2982    1       27.562701854490     102.299999981993      50.000000000000
      2983    1       24.609555221756     107.414999990934      50.000000000000
      2984    1       27.562701854490     105.709999984309      50.000000000000
      2985    1       30.515848476290      97.184999983987      50.000000000000
      2986    1       33.468995109023      95.479999988296      50.000000000000
      2987    1       30.515848476290     100.594999986302      50.000000000000
      2988    1       33.468995109023      98.889999990612      50.000000000000
      2989    1       30.515848476290     104.004999988618      50.000000000000
      2990    1       33.468995109023     102.299999981993      50.000000000000
      2991    1       30.515848476290     107.414999990934      50.000000000000
      2992    1       33.468995109023     105.709999984309      50.000000000000
      2993    2       23.625173018134      95.479999988296      50.000000000000
      2994    2       26.578319639934      97.184999983987      50.000000000000
      2995    2       23.625173018134      98.889999990612      50.000000000000
      2996    2       26.578319639934     100.594999986302      50.000000000000
      2997    2       23.625173018134     102.299999981993      50.000000000000
      2998    2       26.578319639934     104.004999988618      50.000000000000
      2999    2       23.625173018134     105.709999984309      50.000000000000
      3000    2       26.578319639934     107.414999990934      50.000000000000
      3001    2       29.531466272668      95.479999988296      50.000000000000
      3002    2       32.484612894468      97.184999983987      50.000000000000
      3003    2       29.531466272668      98.889999990612      50.000000000000
      3004    2       32.484612894468     100.594999986302      50.000000000000
      3005    2       29.531466272668     102.299999981993      50.000000000000
      3006    2       32.484612894468     104.004999988618      50.000000000000
      3007    2       29.531466272668     105.709999984309      50.000000000000
      3008    2       32.484612894468     107.414999990934      50.000000000000
      3009    1       36.422141730823      97.184999983987      50.000000000000
      3010    1       39.375288363557      95.479999988296      50.000000000000
      3011    1       36.422141730823     100.594999986302      50.000000000000
      3012    1       39.375288363557      98.889999990612      50.000000000000
      3013    1       36.422141730823     104.004999988618      50.000000000000
      3014    1       39.375288363557     102.299999981993      50.000000000000
      3015    1       36.422141730823     107.414999990934      50.000000000000
      3016    1       39.375288363557     105.709999984309      50.000000000000
      3017    1       42.328434985357      97.184999983987      50.000000000000
      3018    1       45.281581618090      95.479999988296      50.000000000000
      3019    1       42.328434985357     100.594999986302      50.000000000000
      3020    1       45.281581618090      98.889999990612      50.000000000000
      3021    1       42.328434985357     104.004999988618      50.000000000000
      3022    1       45.281581618090     102.299999981993      50.000000000000
      3023    1       42.328434985357     107.414999990934      50.000000000000
      3024    1       45.281581618090     105.709999984309      50.000000000000
      3025    2       35.437759527201      95.479999988296      50.000000000000
      3026    2       38.390906149001      97.184999983987      50.000000000000
      3027    2       35.437759527201      98.889999990612      50.000000000000
      3028    2       38.390906149001     100.594999986302      50.000000000000
      3029    2       35.437759527201     102.299999981993      50.000000000000
      3030    2       38.390906149001     104.004999988618      50.000000000000
      3031    2       35.437759527201     105.709999984309      50.000000000000
      3032    2       38.390906149001     107.414999990934      50.000000000000
      3033    2       41.344052781735      95.479999988296      50.000000000000
      3034    2       44.297199403535      97.184999983987      50.000000000000
      3035    2       41.344052781735      98.889999990612      50.000000000000
      3036    2       44.297199403535     100.594999986302      50.000000000000
      3037    2       41.344052781735     102.299999981993      50.000000000000
      3038    2       44.297199403535     104.004999988618      50.000000000000
      3039    2       41.344052781735     105.709999984309      50.000000000000
      3040    2       44.297199403535     107.414999990934      50.000000000000
      3041    1       48.234728239890      97.184999983987      50.000000000000
      3042    1       51.187874872624      95.479999988296      50.000000000000
      3043    1       48.234728239890     100.594999986302      50.000000000000
      3044    1       51.187874872624      98.889999990612      50.000000000000
      3045    1       48.234728239890     104.004999988618      50.000000000000
      3046    1       51.187874872624     102.299999981993      50.000000000000
      3047    1       48.234728239890     107.414999990934      50.000000000000
      3048    1       51.187874872624     105.709999984309      50.000000000000
      3049    1       54.141021494424      97.184999983987      50.000000000000
      3050    1       57.094168127157      95.479999988296      50.000000000000
      3051    1       54.141021494424     100.594999986302      50.000000000000
      3052    1       57.094168127157      98.889999990612      50.000000000000
      3053    1       54.141021494424     104.004999988618      50.000000000000
      3054    1       57.094168127157     102.299999981993      50.000000000000
      3055    1       54.141021494424     107.414999990934      50.000000000000
      3056    1       57.094168127157     105.709999984309      50.000000000000
      3057    2       47.250346036268      95.479999988296      50.000000000000
      3058    2       50.203492658068      97.184999983987      50.000000000000
      3059    2       47.250346036268      98.889999990612      50.000000000000
      3060    2       50.203492658068     100.594999986302      50.000000000000
      3061    2       47.250346036268     102.299999981993      50.000000000000
      3062    2       50.203492658068     104.004999988618      50.000000000000
      3063    2       47.250346036268     105.709999984309      50.000000000000
      3064    2       50.203492658068     107.414999990934      50.000000000000
      3065    2       53.156639290802      95.479999988296      50.000000000000
      3066    2       56.109785912602      97.184999983987      50.000000000000
      3067    2       53.156639290802      98.889999990612      50.000000000000
      3068    2       56.109785912602     100.594999986302      50.000000000000
      3069    2       53.156639290802     102.299999981993      50.000000000000
      3070    2       56.109785912602     104.004999988618      50.000000000000
      3071    2       53.156639290802     105.709999984309      50.000000000000
      3072    2       56.109785912602     107.414999990934      50.000000000000
      3073    1       60.047314748957      97.184999983987      50.000000000000
      3074    1       63.000461381691      95.479999988296      50.000000000000
      3075    1       60.047314748957     100.594999986302      50.000000000000
      3076    1       63.000461381691      98.889999990612      50.000000000000
      3077    1       60.047314748957     104.004999988618      50.000000000000
      3078    1       63.000461381691     102.299999981993      50.000000000000
      3079    1       60.047314748957     107.414999990934      50.000000000000
      3080    1       63.000461381691     105.709999984309      50.000000000000
      3081    1       65.953608003491      97.184999983987      50.000000000000
      3082    1       68.906754636224      95.479999988296      50.000000000000
      3083    1       65.953608003491     100.594999986302      50.000000000000
      3084    1       68.906754636224      98.889999990612      50.000000000000
      3085    1       65.953608003491     104.004999988618      50.000000000000
      3086    1       68.906754636224     102.299999981993      50.000000000000
      3087    1       65.953608003491     107.414999990934      50.000000000000
      3088    1       68.906754636224     105.709999984309      50.000000000000
      3089    2       59.062932545335      95.479999988296      50.000000000000
      3090    2       62.016079167135      97.184999983987      50.000000000000
      3091    2       59.062932545335      98.889999990612      50.000000000000
      3092    2       62.016079167135     100.594999986302      50.000000000000
      3093    2       59.062932545335     102.299999981993      50.000000000000
      3094    2       62.016079167135     104.004999988618      50.000000000000
      3095    2       59.062932545335     105.709999984309      50.000000000000
      3096    2       62.016079167135     107.414999990934      50.000000000000
      3097    2       64.969225799869      95.479999988296      50.000000000000
      3098    2       67.922372421669      97.184999983987      50.000000000000
      3099    2       64.969225799869      98.889999990612      50.000000000000
      3100    2       67.922372421669     100.594999986302      50.000000000000
      3101    2       64.969225799869     102.299999981993      50.000000000000
      3102    2       67.922372421669     104.004999988618      50.000000000000
      3103    2       64.969225799869     105.709999984309      50.000000000000
      3104    2       67.922372421669     107.414999990934      50.000000000000
      3105    1       71.859901258024      97.184999983987      50.000000000000
      3106    1       74.813047890758      95.479999988296      50.000000000000
      3107    1       71.859901258024     100.594999986302      50.000000000000
      3108    1       74.813047890758      98.889999990612      50.000000000000
      3109    1       71.859901258024     104.004999988618      50.000000000000
      3110    1       74.813047890758     102.299999981993      50.000000000000
      3111    1       71.859901258024     107.414999990934      50.000000000000
      3112    1       74.813047890758     105.709999984309      50.000000000000
      3113    1       77.766194512558      97.184999983987      50.000000000000
      3114    1       80.719341145291      95.479999988296      50.000000000000
      3115    1       77.766194512558     100.594999986302      50.000000000000
      3116    1       80.719341145291      98.889999990612      50.000000000000
      3117    1       77.766194512558     104.004999988618      50.000000000000
      3118    1       80.719341145291     102.299999981993      50.000000000000
      3119    1       77.766194512558     107.414999990934      50.000000000000
      3120    1       80.719341145291     105.709999984309      50.000000000000
      3121    2       70.875519054402      95.479999988296      50.000000000000
      3122    2       73.828665676202      97.184999983987      50.000000000000
      3123    2       70.875519054402      98.889999990612      50.000000000000
      3124    2       73.828665676202     100.594999986302      50.000000000000
      3125    2       70.875519054402     102.299999981993      50.000000000000
      3126    2       73.828665676202     104.004999988618      50.000000000000
      3127    2       70.875519054402     105.709999984309      50.000000000000
      3128    2       73.828665676202     107.414999990934      50.000000000000
      3129    2       76.781812308936      95.479999988296      50.000000000000
      3130    2       79.734958930736      97.184999983987      50.000000000000
      3131    2       76.781812308936      98.889999990612      50.000000000000
      3132    2       79.734958930736     100.594999986302      50.000000000000
      3133    2       76.781812308936     102.299999981993      50.000000000000
      3134    2       79.734958930736     104.004999988618      50.000000000000
      3135    2       76.781812308936     105.709999984309      50.000000000000
      3136    2       79.734958930736     107.414999990934      50.000000000000
      3137    1       83.672487767091      97.184999983987      50.000000000000
      3138    1       86.625634399825      95.479999988296      50.000000000000
      3139    1       83.672487767091     100.594999986302      50.000000000000
      3140    1       86.625634399825      98.889999990612      50.000000000000
      3141    1       83.672487767091     104.004999988618      50.000000000000
      3142    1       86.625634399825     102.299999981993      50.000000000000
      3143    1       83.672487767091     107.414999990934      50.000000000000
      3144    1       86.625634399825     105.709999984309      50.000000000000
      3145    1       89.578781021625      97.184999983987      50.000000000000
      3146    1       92.531927654358      95.479999988296      50.000000000000
      3147    1       89.578781021625     100.594999986302      50.000000000000
      3148    1       92.531927654358      98.889999990612      50.000000000000
      3149    1       89.578781021625     104.004999988618      50.000000000000
      3150    1       92.531927654358     102.299999981993      50.000000000000
      3151    1       89.578781021625     107.414999990934      50.000000000000
      3152    1       92.531927654358     105.709999984309      50.000000000000
      3153    2       82.688105563469      95.479999988296      50.000000000000
      3154    2       85.641252185269      97.184999983987      50.000000000000
      3155    2       82.688105563469      98.889999990612      50.000000000000
      3156    2       85.641252185269     100.594999986302      50.000000000000
      3157    2       82.688105563469     102.299999981993      50.000000000000
      3158    2       85.641252185269     104.004999988618      50.000000000000
      3159    2       82.688105563469     105.709999984309      50.000000000000
      3160    2       85.641252185269     107.414999990934      50.000000000000
      3161    2       88.594398818003      95.479999988296      50.000000000000
      3162    2       91.547545439803      97.184999983987      50.000000000000
      3163    2       88.594398818003      98.889999990612      50.000000000000
      3164    2       91.547545439803     100.594999986302      50.000000000000
      3165    2       88.594398818003     102.299999981993      50.000000000000
      3166    2       91.547545439803     104.004999988618      50.000000000000
      3167    2       88.594398818003     105.709999984309      50.000000000000
      3168    2       91.547545439803     107.414999990934      50.000000000000
      3169    1       95.485074276158      97.184999983987      50.000000000000
      3170    1       98.438220908892      95.479999988296      50.000000000000
      3171    1       95.485074276158     100.594999986302      50.000000000000
      3172    1       98.438220908892      98.889999990612      50.000000000000
      3173    1       95.485074276158     104.004999988618      50.000000000000
      3174    1       98.438220908892     102.299999981993      50.000000000000
      3175    1       95.485074276158     107.414999990934      50.000000000000
      3176    1       98.438220908892     105.709999984309      50.000000000000
      3177    1      101.391367530692      97.184999983987      50.000000000000
      3178    1      104.344514163425      95.479999988296      50.000000000000
      3179    1      101.391367530692     100.594999986302      50.000000000000
      3180    1      104.344514163425      98.889999990612      50.000000000000
      3181    1      101.391367530692     104.004999988618      50.000000000000
      3182    1      104.344514163425     102.299999981993      50.000000000000
      3183    1      101.391367530692     107.414999990934      50.000000000000
      3184    1      104.344514163425     105.709999984309      50.000000000000
      3185    2       94.500692072536      95.479999988296      50.000000000000
      3186    2       97.453838694336      97.184999983987      50.000000000000
      3187    2       94.500692072536      98.889999990612      50.000000000000
      3188    2       97.453838694336     100.594999986302      50.000000000000
      3189    2       94.500692072536     102.299999981993      50.000000000000
      3190    2       97.453838694336     104.004999988618      50.000000000000
      3191    2       94.500692072536     105.709999984309      50.000000000000
      3192    2       97.453838694336     107.414999990934      50.000000000000
      3193    2      100.406985327070      95.479999988296      50.000000000000
      3194    2      103.360131948870      97.184999983987      50.000000000000
      3195    2      100.406985327070      98.889999990612      50.000000000000
      3196    2      103.360131948870     100.594999986302      50.000000000000
      3197    2      100.406985327070     102.299999981993      50.000000000000
      3198    2      103.360131948870     104.004999988618      50.000000000000
      3199    2      100.406985327070     105.709999984309      50.000000000000
      3200    2      103.360131948870     107.414999990934      50.000000000000
      3201    1      107.297660785225      97.184999983987      50.000000000000
      3202    1      110.250807417959      95.479999988296      50.000000000000
      3203    1      107.297660785225     100.594999986302      50.000000000000
      3204    1      110.250807417959      98.889999990612      50.000000000000
      3205    1      107.297660785225     104.004999988618      50.000000000000
      3206    1      110.250807417959     102.299999981993      50.000000000000
      3207    1      107.297660785225     107.414999990934      50.000000000000
      3208    1      110.250807417959     105.709999984309      50.000000000000
      3209    1      113.203954039759      97.184999983987      50.000000000000
      3210    1      116.157100672492      95.479999988296      50.000000000000
      3211    1      113.203954039759     100.594999986302      50.000000000000
      3212    1      116.157100672492      98.889999990612      50.000000000000
      3213    1      113.203954039759     104.004999988618      50.000000000000
      3214    1      116.157100672492     102.299999981993      50.000000000000
      3215    1      113.203954039759     107.414999990934      50.000000000000
      3216    1      116.157100672492     105.709999984309      50.000000000000
      3217    2      106.313278581603      95.479999988296      50.000000000000
      3218    2      109.266425203403      97.184999983987      50.000000000000
      3219    2      106.313278581603      98.889999990612      50.000000000000
      3220    2      109.266425203403     100.594999986302      50.000000000000
      3221    2      106.313278581603     102.299999981993      50.000000000000
      3222    2      109.266425203403     104.004999988618      50.000000000000
      3223    2      106.313278581603     105.709999984309      50.000000000000
      3224    2      109.266425203403     107.414999990934      50.000000000000
      3225    2      112.219571836137      95.479999988296      50.000000000000
      3226    2      115.172718457937      97.184999983987      50.000000000000
      3227    2      112.219571836137      98.889999990612      50.000000000000
      3228    2      115.172718457937     100.594999986302      50.000000000000
      3229    2      112.219571836137     102.299999981993      50.000000000000
      3230    2      115.172718457937     104.004999988618      50.000000000000
      3231    2      112.219571836137     105.709999984309      50.000000000000
      3232    2      115.172718457937     107.414999990934      50.000000000000
      3233    1      119.110247294292      97.184999983987      50.000000000000
      3234    1      122.063393927026      95.479999988296      50.000000000000
      3235    1      119.110247294292     100.594999986302      50.000000000000
      3236    1      122.063393927026      98.889999990612      50.000000000000
      3237    1      119.110247294292     104.004999988618      50.000000000000
      3238    1      122.063393927026     102.299999981993      50.000000000000
      3239    1      119.110247294292     107.414999990934      50.000000000000
      3240    1      122.063393927026     105.709999984309      50.000000000000
      3241    1      125.016540548826      97.184999983987      50.000000000000
      3242    1      127.969687181559      95.479999988296      50.000000000000
      3243    1      125.016540548826     100.594999986302      50.000000000000
      3244    1      127.969687181559      98.889999990612      50.000000000000
      3245    1      125.016540548826     104.004999988618      50.000000000000
      3246    1      127.969687181559     102.299999981993      50.000000000000
      3247    1      125.016540548826     107.414999990934      50.000000000000
      3248    1      127.969687181559     105.709999984309      50.000000000000
      3249    2      118.125865090670      95.479999988296      50.000000000000
      3250    2      121.079011712470      97.184999983987      50.000000000000
      3251    2      118.125865090670      98.889999990612      50.000000000000
      3252    2      121.079011712470     100.594999986302      50.000000000000
      3253    2      118.125865090670     102.299999981993      50.000000000000
      3254    2      121.079011712470     104.004999988618      50.000000000000
      3255    2      118.125865090670     105.709999984309      50.000000000000
      3256    2      121.079011712470     107.414999990934      50.000000000000
      3257    2      124.032158345204      95.479999988296      50.000000000000
      3258    2      126.985304967004      97.184999983987      50.000000000000
      3259    2      124.032158345204      98.889999990612      50.000000000000
      3260    2      126.985304967004     100.594999986302      50.000000000000
      3261    2      124.032158345204     102.299999981993      50.000000000000
      3262    2      126.985304967004     104.004999988618      50.000000000000
      3263    2      124.032158345204     105.709999984309      50.000000000000
      3264    2      126.985304967004     107.414999990934      50.000000000000
      3265    1      130.922833803359      97.184999983987      50.000000000000
      3266    1      133.875980436093      95.479999988296      50.000000000000
      3267    1      130.922833803359     100.594999986302      50.000000000000
      3268    1      133.875980436093      98.889999990612      50.000000000000
      3269    1      130.922833803359     104.004999988618      50.000000000000
      3270    1      133.875980436093     102.299999981993      50.000000000000
      3271    1      130.922833803359     107.414999990934      50.000000000000
      3272    1      133.875980436093     105.709999984309      50.000000000000
      3273    1      136.829127057893      97.184999983987      50.000000000000
      3274    1      139.782273690626      95.479999988296      50.000000000000
      3275    1      136.829127057893     100.594999986302      50.000000000000
      3276    1      139.782273690626      98.889999990612      50.000000000000
      3277    1      136.829127057893     104.004999988618      50.000000000000
      3278    1      139.782273690626     102.299999981993      50.000000000000
      3279    1      136.829127057893     107.414999990934      50.000000000000
      3280    1      139.782273690626     105.709999984309      50.000000000000
      3281    2      129.938451599737      95.479999988296      50.000000000000
      3282    2      132.891598221537      97.184999983987      50.000000000000
      3283    2      129.938451599737      98.889999990612      50.000000000000
      3284    2      132.891598221537     100.594999986302      50.000000000000
      3285    2      129.938451599737     102.299999981993      50.000000000000
      3286    2      132.891598221537     104.004999988618      50.000000000000
      3287    2      129.938451599737     105.709999984309      50.000000000000
      3288    2      132.891598221537     107.414999990934      50.000000000000
      3289    2      135.844744854271      95.479999988296      50.000000000000
      3290    2      138.797891476071      97.184999983987      50.000000000000
      3291    2      135.844744854271      98.889999990612      50.000000000000
      3292    2      138.797891476071     100.594999986302      50.000000000000
      3293    2      135.844744854271     102.299999981993      50.000000000000
      3294    2      138.797891476071     104.004999988618      50.000000000000
      3295    2      135.844744854271     105.709999984309      50.000000000000
      3296    2      138.797891476071     107.414999990934      50.000000000000
      3297    1      142.735420312426      97.184999983987      50.000000000000
      3298    1      145.688566945160      95.479999988296      50.000000000000
      3299    1      142.735420312426     100.594999986302      50.000000000000
      3300    1      145.688566945160      98.889999990612      50.000000000000
      3301    1      142.735420312426     104.004999988618      50.000000000000
      3302    1      145.688566945160     102.299999981993      50.000000000000
      3303    1      142.735420312426     107.414999990934      50.000000000000
      3304    1      145.688566945160     105.709999984309      50.000000000000
      3305    1      148.641713566960      97.184999983987      50.000000000000
      3306    1      151.594860199693      95.479999988296      50.000000000000
      3307    1      148.641713566960     100.594999986302      50.000000000000
      3308    1      151.594860199693      98.889999990612      50.000000000000
      3309    1      148.641713566960     104.004999988618      50.000000000000
      3310    1      151.594860199693     102.299999981993      50.000000000000
      3311    1      148.641713566960     107.414999990934      50.000000000000
      3312    1      151.594860199693     105.709999984309      50.000000000000
      3313    2      141.751038108804      95.479999988296      50.000000000000
      3314    2      144.704184730604      97.184999983987      50.000000000000
      3315    2      141.751038108804      98.889999990612      50.000000000000
      3316    2      144.704184730604     100.594999986302      50.000000000000
      3317    2      141.751038108804     102.299999981993      50.000000000000
      3318    2      144.704184730604     104.004999988618      50.000000000000
      3319    2      141.751038108804     105.709999984309      50.000000000000
      3320    2      144.704184730604     107.414999990934      50.000000000000
      3321    2      147.657331363338      95.479999988296      50.000000000000
      3322    2      150.610477985138      97.184999983987      50.000000000000
      3323    2      147.657331363338      98.889999990612      50.000000000000
      3324    2      150.610477985138     100.594999986302      50.000000000000
      3325    2      147.657331363338     102.299999981993      50.000000000000
      3326    2      150.610477985138     104.004999988618      50.000000000000
      3327    2      147.657331363338     105.709999984309      50.000000000000
      3328    2      150.610477985138     107.414999990934      50.000000000000
      3329    1        0.984382203622     110.824999982315      50.000000000000
      3330    1        3.937528836356     109.119999986624      50.000000000000
      3331    1        0.984382203622     114.234999984630      50.000000000000
      3332    1        3.937528836356     112.529999988940      50.000000000000
      3333    1        0.984382203622     117.644999986946      50.000000000000
      3334    1        3.937528836356     115.939999980321      50.000000000000
      3335    1        0.984382203622     121.054999989262      50.000000000000
      3336    1        3.937528836356     119.349999982637      50.000000000000
      3337    1        6.890675458156     110.824999982315      50.000000000000
      3338    1        9.843822090889     109.119999986624      50.000000000000
      3339    1        6.890675458156     114.234999984630      50.000000000000
      3340    1        9.843822090889     112.529999988940      50.000000000000
      3341    1        6.890675458156     117.644999986946      50.000000000000
      3342    1        9.843822090889     115.939999980321      50.000000000000
      3343    1        6.890675458156     121.054999989262      50.000000000000
      3344    1        9.843822090889     119.349999982637      50.000000000000
      3345    2        0.000000000000     109.119999986624      50.000000000000
      3346    2        2.953146621800     110.824999982315      50.000000000000
      3347    2        0.000000000000     112.529999988940      50.000000000000
      3348    2        2.953146621800     114.234999984630      50.000000000000
      3349    2        0.000000000000     115.939999980321      50.000000000000
      3350    2        2.953146621800     117.644999986946      50.000000000000
      3351    2        0.000000000000     119.349999982637      50.000000000000
      3352    2        2.953146621800     121.054999989262      50.000000000000
      3353    2        5.906293254534     109.119999986624      50.000000000000
      3354    2        8.859439876334     110.824999982315      50.000000000000
      3355    2        5.906293254534     112.529999988940      50.000000000000
      3356    2        8.859439876334     114.234999984630      50.000000000000
      3357    2        5.906293254534     115.939999980321      50.000000000000
      3358    2        8.859439876334     117.644999986946      50.000000000000
      3359    2        5.906293254534     119.349999982637      50.000000000000
      3360    2        8.859439876334     121.054999989262      50.000000000000
      3361    1       12.796968712689     110.824999982315      50.000000000000
      3362    1       15.750115345423     109.119999986624      50.000000000000
      3363    1       12.796968712689     114.234999984630      50.000000000000
      3364    1       15.750115345423     112.529999988940      50.000000000000
      3365    1       12.796968712689     117.644999986946      50.000000000000
      3366    1       15.750115345423     115.939999980321      50.000000000000
      3367    1       12.796968712689     121.054999989262      50.000000000000
      3368    1       15.750115345423     119.349999982637      50.000000000000
      3369    1       18.703261967223     110.824999982315      50.000000000000
      3370    1       21.656408599956     109.119999986624      50.000000000000
      3371    1       18.703261967223     114.234999984630      50.000000000000
      3372    1       21.656408599956     112.529999988940      50.000000000000
      3373    1       18.703261967223     117.644999986946      50.000000000000
      3374    1       21.656408599956     115.939999980321      50.000000000000
      3375    1       18.703261967223     121.054999989262      50.000000000000
      3376    1       21.656408599956     119.349999982637      50.000000000000
      3377    2       11.812586509067     109.119999986624      50.000000000000
      3378    2       14.765733130867     110.824999982315      50.000000000000
      3379    2       11.812586509067     112.529999988940      50.000000000000
      3380    2       14.765733130867     114.234999984630      50.000000000000
      3381    2       11.812586509067     115.939999980321      50.000000000000
      3382    2       14.765733130867     117.644999986946      50.000000000000
      3383    2       11.812586509067     119.349999982637      50.000000000000
      3384    2       14.765733130867     121.054999989262      50.000000000000
      3385    2       17.718879763601     109.119999986624      50.000000000000
      3386    2       20.672026385401     110.824999982315      50.000000000000
      3387    2       17.718879763601     112.529999988940      50.000000000000
      3388    2       20.672026385401     114.234999984630      50.000000000000
      3389    2       17.718879763601     115.939999980321      50.000000000000
      3390    2       20.672026385401     117.644999986946      50.000000000000
      3391    2       17.718879763601     119.349999982637      50.000000000000
      3392    2       20.672026385401     121.054999989262      50.000000000000
      3393    1       24.609555221756     110.824999982315      50.000000000000
      3394    1       27.562701854490     109.119999986624      50.000000000000
      3395    1       24.609555221756     114.234999984630      50.000000000000
      3396    1       27.562701854490     112.529999988940      50.000000000000
      3397    1       24.609555221756     117.644999986946      50.000000000000
      3398    1       27.562701854490     115.939999980321      50.000000000000
      3399    1       24.609555221756     121.054999989262      50.000000000000
      3400    1       27.562701854490     119.349999982637      50.000000000000
      3401    1       30.515848476290     110.824999982315      50.000000000000
      3402    1       33.468995109023     109.119999986624      50.000000000000
      3403    1       30.515848476290     114.234999984630      50.000000000000
      3404    1       33.468995109023     112.529999988940      50.000000000000
      3405    1       30.515848476290     117.644999986946      50.000000000000
      3406    1       33.468995109023     115.939999980321      50.000000000000
      3407    1       30.515848476290     121.054999989262      50.000000000000
      3408    1       33.468995109023     119.349999982637      50.000000000000
      3409    2       23.625173018134     109.119999986624      50.000000000000
      3410    2       26.578319639934     110.824999982315      50.000000000000
      3411    2       23.625173018134     112.529999988940      50.000000000000
      3412    2       26.578319639934     114.234999984630      50.000000000000
      3413    2       23.625173018134     115.939999980321      50.000000000000
      3414    2       26.578319639934     117.644999986946      50.000000000000
      3415    2       23.625173018134     119.349999982637      50.000000000000
      3416    2       26.578319639934     121.054999989262      50.000000000000
      3417    2       29.531466272668     109.119999986624      50.000000000000
      3418    2       32.484612894468     110.824999982315      50.000000000000
      3419    2       29.531466272668     112.529999988940      50.000000000000
      3420    2       32.484612894468     114.234999984630      50.000000000000
      3421    2       29.531466272668     115.939999980321      50.000000000000
      3422    2       32.484612894468     117.644999986946      50.000000000000
      3423    2       29.531466272668     119.349999982637      50.000000000000
      3424    2       32.484612894468     121.054999989262      50.000000000000
      3425    1       36.422141730823     110.824999982315      50.000000000000
      3426    1       39.375288363557     109.119999986624      50.000000000000
      3427    1       36.422141730823     114.234999984630      50.000000000000
      3428    1       39.375288363557     112.529999988940      50.000000000000
      3429    1       36.422141730823     117.644999986946      50.000000000000
      3430    1       39.375288363557     115.939999980321      50.000000000000
      3431    1       36.422141730823     121.054999989262      50.000000000000
      3432    1       39.375288363557     119.349999982637      50.000000000000
      3433    1       42.328434985357     110.824999982315      50.000000000000
      3434    1       45.281581618090     109.119999986624      50.000000000000
      3435    1       42.328434985357     114.234999984630      50.000000000000
      3436    1       45.281581618090     112.529999988940      50.000000000000
      3437    1       42.328434985357     117.644999986946      50.000000000000
      3438    1       45.281581618090     115.939999980321      50.000000000000
      3439    1       42.328434985357     121.054999989262      50.000000000000
      3440    1       45.281581618090     119.349999982637      50.000000000000
      3441    2       35.437759527201     109.119999986624      50.000000000000
      3442    2       38.390906149001     110.824999982315      50.000000000000
      3443    2       35.437759527201     112.529999988940      50.000000000000
      3444    2       38.390906149001     114.234999984630      50.000000000000
      3445    2       35.437759527201     115.939999980321      50.000000000000
      3446    2       38.390906149001     117.644999986946      50.000000000000
      3447    2       35.437759527201     119.349999982637      50.000000000000
      3448    2       38.390906149001     121.054999989262      50.000000000000
      3449    2       41.344052781735     109.119999986624      50.000000000000
      3450    2       44.297199403535     110.824999982315      50.000000000000
      3451    2       41.344052781735     112.529999988940      50.000000000000
      3452    2       44.297199403535     114.234999984630      50.000000000000
      3453    2       41.344052781735     115.939999980321      50.000000000000
      3454    2       44.297199403535     117.644999986946      50.000000000000
      3455    2       41.344052781735     119.349999982637      50.000000000000
      3456    2       44.297199403535     121.054999989262      50.000000000000
      3457    1       48.234728239890     110.824999982315      50.000000000000
      3458    1       51.187874872624     109.119999986624      50.000000000000
      3459    1       48.234728239890     114.234999984630      50.000000000000
      3460    1       51.187874872624     112.529999988940      50.000000000000
      3461    1       48.234728239890     117.644999986946      50.000000000000
      3462    1       51.187874872624     115.939999980321      50.000000000000
      3463    1       48.234728239890     121.054999989262      50.000000000000
      3464    1       51.187874872624     119.349999982637      50.000000000000
      3465    1       54.141021494424     110.824999982315      50.000000000000
      3466    1       57.094168127157     109.119999986624      50.000000000000
      3467    1       54.141021494424     114.234999984630      50.000000000000
      3468    1       57.094168127157     112.529999988940      50.000000000000
      3469    1       54.141021494424     117.644999986946      50.000000000000
      3470    1       57.094168127157     115.939999980321      50.000000000000
      3471    1       54.141021494424     121.054999989262      50.000000000000
      3472    1       57.094168127157     119.349999982637      50.000000000000
      3473    2       47.250346036268     109.119999986624      50.000000000000
      3474    2       50.203492658068     110.824999982315      50.000000000000
      3475    2       47.250346036268     112.529999988940      50.000000000000
      3476    2       50.203492658068     114.234999984630      50.000000000000
      3477    2       47.250346036268     115.939999980321      50.000000000000
      3478    2       50.203492658068     117.644999986946      50.000000000000
      3479    2       47.250346036268     119.349999982637      50.000000000000
      3480    2       50.203492658068     121.054999989262      50.000000000000
      3481    2       53.156639290802     109.119999986624      50.000000000000
      3482    2       56.109785912602     110.824999982315      50.000000000000
      3483    2       53.156639290802     112.529999988940      50.000000000000
      3484    2       56.109785912602     114.234999984630      50.000000000000
      3485    2       53.156639290802     115.939999980321      50.000000000000
      3486    2       56.109785912602     117.644999986946      50.000000000000
      3487    2       53.156639290802     119.349999982637      50.000000000000
      3488    2       56.109785912602     121.054999989262      50.000000000000
      3489    1       60.047314748957     110.824999982315      50.000000000000
      3490    1       63.000461381691     109.119999986624      50.000000000000
      3491    1       60.047314748957     114.234999984630      50.000000000000
      3492    1       63.000461381691     112.529999988940      50.000000000000
      3493    1       60.047314748957     117.644999986946      50.000000000000
      3494    1       63.000461381691     115.939999980321      50.000000000000
      3495    1       60.047314748957     121.054999989262      50.000000000000
      3496    1       63.000461381691     119.349999982637      50.000000000000
      3497    1       65.953608003491     110.824999982315      50.000000000000
      3498    1       68.906754636224     109.119999986624      50.000000000000
      3499    1       65.953608003491     114.234999984630      50.000000000000
      3500    1       68.906754636224     112.529999988940      50.000000000000
      3501    1       65.953608003491     117.644999986946      50.000000000000
      3502    1       68.906754636224     115.939999980321      50.000000000000
      3503    1       65.953608003491     121.054999989262      50.000000000000
      3504    1       68.906754636224     119.349999982637      50.000000000000
      3505    2       59.062932545335     109.119999986624      50.000000000000
      3506    2       62.016079167135     110.824999982315      50.000000000000
      3507    2       59.062932545335     112.529999988940      50.000000000000
      3508    2       62.016079167135     114.234999984630      50.000000000000
      3509    2       59.062932545335     115.939999980321      50.000000000000
      3510    2       62.016079167135     117.644999986946      50.000000000000
      3511    2       59.062932545335     119.349999982637      50.000000000000
      3512    2       62.016079167135     121.054999989262      50.000000000000
      3513    2       64.969225799869     109.119999986624      50.000000000000
      3514    2       67.922372421669     110.824999982315      50.000000000000
      3515    2       64.969225799869     112.529999988940      50.000000000000
      3516    2       67.922372421669     114.234999984630      50.000000000000
      3517    2       64.969225799869     115.939999980321      50.000000000000
      3518    2       67.922372421669     117.644999986946      50.000000000000
      3519    2       64.969225799869     119.349999982637      50.000000000000
      3520    2       67.922372421669     121.054999989262      50.000000000000
      3521    1       71.859901258024     110.824999982315      50.000000000000
      3522    1       74.813047890758     109.119999986624      50.000000000000
      3523    1       71.859901258024     114.234999984630      50.000000000000
      3524    1       74.813047890758     112.529999988940      50.000000000000
      3525    1       71.859901258024     117.644999986946      50.000000000000
      3526    1       74.813047890758     115.939999980321      50.000000000000
      3527    1       71.859901258024     121.054999989262      50.000000000000
      3528    1       74.813047890758     119.349999982637      50.000000000000
      3529    1       77.766194512558     110.824999982315      50.000000000000
      3530    1       80.719341145291     109.119999986624      50.000000000000
      3531    1       77.766194512558     114.234999984630      50.000000000000
      3532    1       80.719341145291     112.529999988940      50.000000000000
      3533    1       77.766194512558     117.644999986946      50.000000000000
      3534    1       80.719341145291     115.939999980321      50.000000000000
      3535    1       77.766194512558     121.054999989262      50.000000000000
      3536    1       80.719341145291     119.349999982637      50.000000000000
      3537    2       70.875519054402     109.119999986624      50.000000000000
      3538    2       73.828665676202     110.824999982315      50.000000000000
      3539    2       70.875519054402     112.529999988940      50.000000000000
      3540    2       73.828665676202     114.234999984630      50.000000000000
      3541    2       70.875519054402     115.939999980321      50.000000000000
      3542    2       73.828665676202     117.644999986946      50.000000000000
      3543    2       70.875519054402     119.349999982637      50.000000000000
      3544    2       73.828665676202     121.054999989262      50.000000000000
      3545    2       76.781812308936     109.119999986624      50.000000000000
      3546    2       79.734958930736     110.824999982315      50.000000000000
      3547    2       76.781812308936     112.529999988940      50.000000000000
      3548    2       79.734958930736     114.234999984630      50.000000000000
      3549    2       76.781812308936     115.939999980321      50.000000000000
      3550    2       79.734958930736     117.644999986946      50.000000000000
      3551    2       76.781812308936     119.349999982637      50.000000000000
      3552    2       79.734958930736     121.054999989262      50.000000000000
      3553    1       83.672487767091     110.824999982315      50.000000000000
      3554    1       86.625634399825     109.119999986624      50.000000000000
      3555    1       83.672487767091     114.234999984630      50.000000000000
      3556    1       86.625634399825     112.529999988940      50.000000000000
      3557    1       83.672487767091     117.644999986946      50.000000000000
      3558    1       86.625634399825     115.939999980321      50.000000000000
      3559    1       83.672487767091     121.054999989262      50.000000000000
      3560    1       86.625634399825     119.349999982637      50.000000000000
      3561    1       89.578781021625     110.824999982315      50.000000000000
      3562    1       92.531927654358     109.119999986624      50.000000000000
      3563    1       89.578781021625     114.234999984630      50.000000000000
      3564    1       92.531927654358     112.529999988940      50.000000000000
      3565    1       89.578781021625     117.644999986946      50.000000000000
      3566    1       92.531927654358     115.939999980321      50.000000000000
      3567    1       89.578781021625     121.054999989262      50.000000000000
      3568    1       92.531927654358     119.349999982637      50.000000000000
      3569    2       82.688105563469     109.119999986624      50.000000000000
      3570    2       85.641252185269     110.824999982315      50.000000000000
      3571    2       82.688105563469     112.529999988940      50.000000000000
      3572    2       85.641252185269     114.234999984630      50.000000000000
      3573    2       82.688105563469     115.939999980321      50.000000000000
      3574    2       85.641252185269     117.644999986946      50.000000000000
      3575    2       82.688105563469     119.349999982637      50.000000000000
      3576    2       85.641252185269     121.054999989262      50.000000000000
      3577    2       88.594398818003     109.119999986624      50.000000000000
      3578    2       91.547545439803     110.824999982315      50.000000000000
      3579    2       88.594398818003     112.529999988940      50.000000000000
      3580    2       91.547545439803     114.234999984630      50.000000000000
      3581    2       88.594398818003     115.939999980321      50.000000000000
      3582    2       91.547545439803     117.644999986946      50.000000000000
      3583    2       88.594398818003     119.349999982637      50.000000000000
      3584    2       91.547545439803     121.054999989262      50.000000000000
      3585    1       95.485074276158     110.824999982315      50.000000000000
      3586    1       98.438220908892     109.119999986624      50.000000000000
      3587    1       95.485074276158     114.234999984630      50.000000000000
      3588    1       98.438220908892     112.529999988940      50.000000000000
      3589    1       95.485074276158     117.644999986946      50.000000000000
      3590    1       98.438220908892     115.939999980321      50.000000000000
      3591    1       95.485074276158     121.054999989262      50.000000000000
      3592    1       98.438220908892     119.349999982637      50.000000000000
      3593    1      101.391367530692     110.824999982315      50.000000000000
      3594    1      104.344514163425     109.119999986624      50.000000000000
      3595    1      101.391367530692     114.234999984630      50.000000000000
      3596    1      104.344514163425     112.529999988940      50.000000000000
      3597    1      101.391367530692     117.644999986946      50.000000000000
      3598    1      104.344514163425     115.939999980321      50.000000000000
      3599    1      101.391367530692     121.054999989262      50.000000000000
      3600    1      104.344514163425     119.349999982637      50.000000000000
      3601    2       94.500692072536     109.119999986624      50.000000000000
      3602    2       97.453838694336     110.824999982315      50.000000000000
      3603    2       94.500692072536     112.529999988940      50.000000000000
      3604    2       97.453838694336     114.234999984630      50.000000000000
      3605    2       94.500692072536     115.939999980321      50.000000000000
      3606    2       97.453838694336     117.644999986946      50.000000000000
      3607    2       94.500692072536     119.349999982637      50.000000000000
      3608    2       97.453838694336     121.054999989262      50.000000000000
      3609    2      100.406985327070     109.119999986624      50.000000000000
      3610    2      103.360131948870     110.824999982315      50.000000000000
      3611    2      100.406985327070     112.529999988940      50.000000000000
      3612    2      103.360131948870     114.234999984630      50.000000000000
      3613    2      100.406985327070     115.939999980321      50.000000000000
      3614    2      103.360131948870     117.644999986946      50.000000000000
      3615    2      100.406985327070     119.349999982637      50.000000000000
      3616    2      103.360131948870     121.054999989262      50.000000000000
      3617    1      107.297660785225     110.824999982315      50.000000000000
      3618    1      110.250807417959     109.119999986624      50.000000000000
      3619    1      107.297660785225     114.234999984630      50.000000000000
      3620    1      110.250807417959     112.529999988940      50.000000000000
      3621    1      107.297660785225     117.644999986946      50.000000000000
      3622    1      110.250807417959     115.939999980321      50.000000000000
      3623    1      107.297660785225     121.054999989262      50.000000000000
      3624    1      110.250807417959     119.349999982637      50.000000000000
      3625    1      113.203954039759     110.824999982315      50.000000000000
      3626    1      116.157100672492     109.119999986624      50.000000000000
      3627    1      113.203954039759     114.234999984630      50.000000000000
      3628    1      116.157100672492     112.529999988940      50.000000000000
      3629    1      113.203954039759     117.644999986946      50.000000000000
      3630    1      116.157100672492     115.939999980321      50.000000000000
      3631    1      113.203954039759     121.054999989262      50.000000000000
      3632    1      116.157100672492     119.349999982637      50.000000000000
      3633    2      106.313278581603     109.119999986624      50.000000000000
      3634    2      109.266425203403     110.824999982315      50.000000000000
      3635    2      106.313278581603     112.529999988940      50.000000000000
      3636    2      109.266425203403     114.234999984630      50.000000000000
      3637    2      106.313278581603     115.939999980321      50.000000000000
      3638    2      109.266425203403     117.644999986946      50.000000000000
      3639    2      106.313278581603     119.349999982637      50.000000000000
      3640    2      109.266425203403     121.054999989262      50.000000000000
      3641    2      112.219571836137     109.119999986624      50.000000000000
      3642    2      115.172718457937     110.824999982315      50.000000000000
      3643    2      112.219571836137     112.529999988940      50.000000000000
      3644    2      115.172718457937     114.234999984630      50.000000000000
      3645    2      112.219571836137     115.939999980321      50.000000000000
      3646    2      115.172718457937     117.644999986946      50.000000000000
      3647    2      112.219571836137     119.349999982637      50.000000000000
      3648    2      115.172718457937     121.054999989262      50.000000000000
      3649    1      119.110247294292     110.824999982315      50.000000000000
      3650    1      122.063393927026     109.119999986624      50.000000000000
      3651    1      119.110247294292     114.234999984630      50.000000000000
      3652    1      122.063393927026     112.529999988940      50.000000000000
      3653    1      119.110247294292     117.644999986946      50.000000000000
      3654    1      122.063393927026     115.939999980321      50.000000000000
      3655    1      119.110247294292     121.054999989262      50.000000000000
      3656    1      122.063393927026     119.349999982637      50.000000000000
      3657    1      125.016540548826     110.824999982315      50.000000000000
      3658    1      127.969687181559     109.119999986624      50.000000000000
      3659    1      125.016540548826     114.234999984630      50.000000000000
      3660    1      127.969687181559     112.529999988940      50.000000000000
      3661    1      125.016540548826     117.644999986946      50.000000000000
      3662    1      127.969687181559     115.939999980321      50.000000000000
      3663    1      125.016540548826     121.054999989262      50.000000000000
      3664    1      127.969687181559     119.349999982637      50.000000000000
      3665    2      118.125865090670     109.119999986624      50.000000000000
      3666    2      121.079011712470     110.824999982315      50.000000000000
      3667    2      118.125865090670     112.529999988940      50.000000000000
      3668    2      121.079011712470     114.234999984630      50.000000000000
      3669    2      118.125865090670     115.939999980321      50.000000000000
      3670    2      121.079011712470     117.644999986946      50.000000000000
      3671    2      118.125865090670     119.349999982637      50.000000000000
      3672    2      121.079011712470     121.054999989262      50.000000000000
      3673    2      124.032158345204     109.119999986624      50.000000000000
      3674    2      126.985304967004     110.824999982315      50.000000000000
      3675    2      124.032158345204     112.529999988940      50.000000000000
      3676    2      126.985304967004     114.234999984630      50.000000000000
      3677    2      124.032158345204     115.939999980321      50.000000000000
      3678    2      126.985304967004     117.644999986946      50.000000000000
      3679    2      124.032158345204     119.349999982637      50.000000000000
      3680    2      126.985304967004     121.054999989262      50.000000000000
      3681    1      130.922833803359     110.824999982315      50.000000000000
      3682    1      133.875980436093     109.119999986624      50.000000000000
      3683    1      130.922833803359     114.234999984630      50.000000000000
      3684    1      133.875980436093     112.529999988940      50.000000000000
      3685    1      130.922833803359     117.644999986946      50.000000000000
      3686    1      133.875980436093     115.939999980321      50.000000000000
      3687    1      130.922833803359     121.054999989262      50.000000000000
      3688    1      133.875980436093     119.349999982637      50.000000000000
      3689    1      136.829127057893     110.824999982315      50.000000000000
      3690    1      139.782273690626     109.119999986624      50.000000000000
      3691    1      136.829127057893     114.234999984630      50.000000000000
      3692    1      139.782273690626     112.529999988940      50.000000000000
      3693    1      136.829127057893     117.644999986946      50.000000000000
      3694    1      139.782273690626     115.939999980321      50.000000000000
      3695    1      136.829127057893     121.054999989262      50.000000000000
      3696    1      139.782273690626     119.349999982637      50.000000000000
      3697    2      129.938451599737     109.119999986624      50.000000000000
      3698    2      132.891598221537     110.824999982315      50.000000000000
      3699    2      129.938451599737     112.529999988940      50.000000000000
      3700    2      132.891598221537     114.234999984630      50.000000000000
      3701    2      129.938451599737     115.939999980321      50.000000000000
      3702    2      132.891598221537     117.644999986946      50.000000000000
      3703    2      129.938451599737     119.349999982637      50.000000000000
      3704    2      132.891598221537     121.054999989262      50.000000000000
      3705    2      135.844744854271     109.119999986624      50.000000000000
      3706    2      138.797891476071     110.824999982315      50.000000000000
      3707    2      135.844744854271     112.529999988940      50.000000000000
      3708    2      138.797891476071     114.234999984630      50.000000000000
      3709    2      135.844744854271     115.939999980321      50.000000000000
      3710    2      138.797891476071     117.644999986946      50.000000000000
      3711    2      135.844744854271     119.349999982637      50.000000000000
      3712    2      138.797891476071     121.054999989262      50.000000000000
      3713    1      142.735420312426     110.824999982315      50.000000000000
      3714    1      145.688566945160     109.119999986624      50.000000000000
      3715    1      142.735420312426     114.234999984630      50.000000000000
      3716    1      145.688566945160     112.529999988940      50.000000000000
      3717    1      142.735420312426     117.644999986946      50.000000000000
      3718    1      145.688566945160     115.939999980321      50.000000000000
      3719    1      142.735420312426     121.054999989262      50.000000000000
      3720    1      145.688566945160     119.349999982637      50.000000000000
      3721    1      148.641713566960     110.824999982315      50.000000000000
      3722    1      151.594860199693     109.119999986624      50.000000000000
      3723    1      148.641713566960     114.234999984630      50.000000000000
      3724    1      151.594860199693     112.529999988940      50.000000000000
      3725    1      148.641713566960     117.644999986946      50.000000000000
      3726    1      151.594860199693     115.939999980321      50.000000000000
      3727    1      148.641713566960     121.054999989262      50.000000000000
      3728    1      151.594860199693     119.349999982637      50.000000000000
      3729    2      141.751038108804     109.119999986624      50.000000000000
      3730    2      144.704184730604     110.824999982315      50.000000000000
      3731    2      141.751038108804     112.529999988940      50.000000000000
      3732    2      144.704184730604     114.234999984630      50.000000000000
      3733    2      141.751038108804     115.939999980321      50.000000000000
      3734    2      144.704184730604     117.644999986946      50.000000000000
      3735    2      141.751038108804     119.349999982637      50.000000000000
      3736    2      144.704184730604     121.054999989262      50.000000000000
      3737    2      147.657331363338     109.119999986624      50.000000000000
      3738    2      150.610477985138     110.824999982315      50.000000000000
      3739    2      147.657331363338     112.529999988940      50.000000000000
      3740    2      150.610477985138     114.234999984630      50.000000000000
      3741    2      147.657331363338     115.939999980321      50.000000000000
      3742    2      150.610477985138     117.644999986946      50.000000000000
      3743    2      147.657331363338     119.349999982637      50.000000000000
      3744    2      150.610477985138     121.054999989262      50.000000000000
      3745    1        0.984382203622     124.464999980643      50.000000000000
      3746    1        3.937528836356     122.759999984952      50.000000000000
      3747    1        0.984382203622     127.874999982958      50.000000000000
      3748    1        3.937528836356     126.169999987268      50.000000000000
      3749    1        0.984382203622     131.284999985274      50.000000000000
      3750    1        3.937528836356     129.579999978649      50.000000000000
      3751    1        0.984382203622     134.694999987590      50.000000000000
      3752    1        3.937528836356     132.989999980965      50.000000000000
      3753    1        6.890675458156     124.464999980643      50.000000000000
      3754    1        9.843822090889     122.759999984952      50.000000000000
      3755    1        6.890675458156     127.874999982958      50.000000000000
      3756    1        9.843822090889     126.169999987268      50.000000000000
      3757    1        6.890675458156     131.284999985274      50.000000000000
      3758    1        9.843822090889     129.579999978649      50.000000000000
      3759    1        6.890675458156     134.694999987590      50.000000000000
      3760    1        9.843822090889     132.989999980965      50.000000000000
      3761    2        0.000000000000     122.759999984952      50.000000000000
      3762    2        2.953146621800     124.464999980643      50.000000000000
      3763    2        0.000000000000     126.169999987268      50.000000000000
      3764    2        2.953146621800     127.874999982958      50.000000000000
      3765    2        0.000000000000     129.579999978649      50.000000000000
      3766    2        2.953146621800     131.284999985274      50.000000000000
      3767    2        0.000000000000     132.989999980965      50.000000000000
      3768    2        2.953146621800     134.694999987590      50.000000000000
      3769    2        5.906293254534     122.759999984952      50.000000000000
      3770    2        8.859439876334     124.464999980643      50.000000000000
      3771    2        5.906293254534     126.169999987268      50.000000000000
      3772    2        8.859439876334     127.874999982958      50.000000000000
      3773    2        5.906293254534     129.579999978649      50.000000000000
      3774    2        8.859439876334     131.284999985274      50.000000000000
      3775    2        5.906293254534     132.989999980965      50.000000000000
      3776    2        8.859439876334     134.694999987590      50.000000000000
      3777    1       12.796968712689     124.464999980643      50.000000000000
      3778    1       15.750115345423     122.759999984952      50.000000000000
      3779    1       12.796968712689     127.874999982958      50.000000000000
      3780    1       15.750115345423     126.169999987268      50.000000000000
      3781    1       12.796968712689     131.284999985274      50.000000000000
      3782    1       15.750115345423     129.579999978649      50.000000000000
      3783    1       12.796968712689     134.694999987590      50.000000000000
      3784    1       15.750115345423     132.989999980965      50.000000000000
      3785    1       18.703261967223     124.464999980643      50.000000000000
      3786    1       21.656408599956     122.759999984952      50.000000000000
      3787    1       18.703261967223     127.874999982958      50.000000000000
      3788    1       21.656408599956     126.169999987268      50.000000000000
      3789    1       18.703261967223     131.284999985274      50.000000000000
      3790    1       21.656408599956     129.579999978649      50.000000000000
      3791    1       18.703261967223     134.694999987590      50.000000000000
      3792    1       21.656408599956     132.989999980965      50.000000000000
      3793    2       11.812586509067     122.759999984952      50.000000000000
      3794    2       14.765733130867     124.464999980643      50.000000000000
      3795    2       11.812586509067     126.169999987268      50.000000000000
      3796    2       14.765733130867     127.874999982958      50.000000000000
      3797    2       11.812586509067     129.579999978649      50.000000000000
      3798    2       14.765733130867     131.284999985274      50.000000000000
      3799    2       11.812586509067     132.989999980965      50.000000000000
      3800    2       14.765733130867     134.694999987590      50.000000000000
      3801    2       17.718879763601     122.759999984952      50.000000000000
      3802    2       20.672026385401     124.464999980643      50.000000000000
      3803    2       17.718879763601     126.169999987268      50.000000000000
      3804    2       20.672026385401     127.874999982958      50.000000000000
      3805    2       17.718879763601     129.579999978649      50.000000000000
      3806    2       20.672026385401     131.284999985274      50.000000000000
      3807    2       17.718879763601     132.989999980965      50.000000000000
      3808    2       20.672026385401     134.694999987590      50.000000000000
      3809    1       24.609555221756     124.464999980643      50.000000000000
      3810    1       27.562701854490     122.759999984952      50.000000000000
      3811    1       24.609555221756     127.874999982958      50.000000000000
      3812    1       27.562701854490     126.169999987268      50.000000000000
      3813    1       24.609555221756     131.284999985274      50.000000000000
      3814    1       27.562701854490     129.579999978649      50.000000000000
      3815    1       24.609555221756     134.694999987590      50.000000000000
      3816    1       27.562701854490     132.989999980965      50.000000000000
      3817    1       30.515848476290     124.464999980643      50.000000000000
      3818    1       33.468995109023     122.759999984952      50.000000000000
      3819    1       30.515848476290     127.874999982958      50.000000000000
      3820    1       33.468995109023     126.169999987268      50.000000000000
      3821    1       30.515848476290     131.284999985274      50.000000000000
      3822    1       33.468995109023     129.579999978649      50.000000000000
      3823    1       30.515848476290     134.694999987590      50.000000000000
      3824    1       33.468995109023     132.989999980965      50.000000000000
      3825    2       23.625173018134     122.759999984952      50.000000000000
      3826    2       26.578319639934     124.464999980643      50.000000000000
      3827    2       23.625173018134     126.169999987268      50.000000000000
      3828    2       26.578319639934     127.874999982958      50.000000000000
      3829    2       23.625173018134     129.579999978649      50.000000000000
      3830    2       26.578319639934     131.284999985274      50.000000000000
      3831    2       23.625173018134     132.989999980965      50.000000000000
      3832    2       26.578319639934     134.694999987590      50.000000000000
      3833    2       29.531466272668     122.759999984952      50.000000000000
      3834    2       32.484612894468     124.464999980643      50.000000000000
      3835    2       29.531466272668     126.169999987268      50.000000000000
      3836    2       32.484612894468     127.874999982958      50.000000000000
      3837    2       29.531466272668     129.579999978649      50.000000000000
      3838    2       32.484612894468     131.284999985274      50.000000000000
      3839    2       29.531466272668     132.989999980965      50.000000000000
      3840    2       32.484612894468     134.694999987590      50.000000000000
      3841    1       36.422141730823     124.464999980643      50.000000000000
      3842    1       39.375288363557     122.759999984952      50.000000000000
      3843    1       36.422141730823     127.874999982958      50.000000000000
      3844    1       39.375288363557     126.169999987268      50.000000000000
      3845    1       36.422141730823     131.284999985274      50.000000000000
      3846    1       39.375288363557     129.579999978649      50.000000000000
      3847    1       36.422141730823     134.694999987590      50.000000000000
      3848    1       39.375288363557     132.989999980965      50.000000000000
      3849    1       42.328434985357     124.464999980643      50.000000000000
      3850    1       45.281581618090     122.759999984952      50.000000000000
      3851    1       42.328434985357     127.874999982958      50.000000000000
      3852    1       45.281581618090     126.169999987268      50.000000000000
      3853    1       42.328434985357     131.284999985274      50.000000000000
      3854    1       45.281581618090     129.579999978649      50.000000000000
      3855    1       42.328434985357     134.694999987590      50.000000000000
      3856    1       45.281581618090     132.989999980965      50.000000000000
      3857    2       35.437759527201     122.759999984952      50.000000000000
      3858    2       38.390906149001     124.464999980643      50.000000000000
      3859    2       35.437759527201     126.169999987268      50.000000000000
      3860    2       38.390906149001     127.874999982958      50.000000000000
      3861    2       35.437759527201     129.579999978649      50.000000000000
      3862    2       38.390906149001     131.284999985274      50.000000000000
      3863    2       35.437759527201     132.989999980965      50.000000000000
      3864    2       38.390906149001     134.694999987590      50.000000000000
      3865    2       41.344052781735     122.759999984952      50.000000000000
      3866    2       44.297199403535     124.464999980643      50.000000000000
      3867    2       41.344052781735     126.169999987268      50.000000000000
      3868    2       44.297199403535     127.874999982958      50.000000000000
      3869    2       41.344052781735     129.579999978649      50.000000000000
      3870    2       44.297199403535     131.284999985274      50.000000000000
      3871    2       41.344052781735     132.989999980965      50.000000000000
      3872    2       44.297199403535     134.694999987590      50.000000000000
      3873    1       48.234728239890     124.464999980643      50.000000000000
      3874    1       51.187874872624     122.759999984952      50.000000000000
      3875    1       48.234728239890     127.874999982958      50.000000000000
      3876    1       51.187874872624     126.169999987268      50.000000000000
      3877    1       48.234728239890     131.284999985274      50.000000000000
      3878    1       51.187874872624     129.579999978649      50.000000000000
      3879    1       48.234728239890     134.694999987590      50.000000000000
      3880    1       51.187874872624     132.989999980965      50.000000000000
      3881    1       54.141021494424     124.464999980643      50.000000000000
      3882    1       57.094168127157     122.759999984952      50.000000000000
      3883    1       54.141021494424     127.874999982958      50.000000000000
      3884    1       57.094168127157     126.169999987268      50.000000000000
      3885    1       54.141021494424     131.284999985274      50.000000000000
      3886    1       57.094168127157     129.579999978649      50.000000000000
      3887    1       54.141021494424     134.694999987590      50.000000000000
      3888    1       57.094168127157     132.989999980965      50.000000000000
      3889    2       47.250346036268     122.759999984952      50.000000000000
      3890    2       50.203492658068     124.464999980643      50.000000000000
      3891    2       47.250346036268     126.169999987268      50.000000000000
      3892    2       50.203492658068     127.874999982958      50.000000000000
      3893    2       47.250346036268     129.579999978649      50.000000000000
      3894    2       50.203492658068     131.284999985274      50.000000000000
      3895    2       47.250346036268     132.989999980965      50.000000000000
      3896    2       50.203492658068     134.694999987590      50.000000000000
      3897    2       53.156639290802     122.759999984952      50.000000000000
      3898    2       56.109785912602     124.464999980643      50.000000000000
      3899    2       53.156639290802     126.169999987268      50.000000000000
      3900    2       56.109785912602     127.874999982958      50.000000000000
      3901    2       53.156639290802     129.579999978649      50.000000000000
      3902    2       56.109785912602     131.284999985274      50.000000000000
      3903    2       53.156639290802     132.989999980965      50.000000000000
      3904    2       56.109785912602     134.694999987590      50.000000000000
      3905    1       60.047314748957     124.464999980643      50.000000000000
      3906    1       63.000461381691     122.759999984952      50.000000000000
      3907    1       60.047314748957     127.874999982958      50.000000000000
      3908    1       63.000461381691     126.169999987268      50.000000000000
      3909    1       60.047314748957     131.284999985274      50.000000000000
      3910    1       63.000461381691     129.579999978649      50.000000000000
      3911    1       60.047314748957     134.694999987590      50.000000000000
      3912    1       63.000461381691     132.989999980965      50.000000000000
      3913    1       65.953608003491     124.464999980643      50.000000000000
      3914    1       68.906754636224     122.759999984952      50.000000000000
      3915    1       65.953608003491     127.874999982958      50.000000000000
      3916    1       68.906754636224     126.169999987268      50.000000000000
      3917    1       65.953608003491     131.284999985274      50.000000000000
      3918    1       68.906754636224     129.579999978649      50.000000000000
      3919    1       65.953608003491     134.694999987590      50.000000000000
      3920    1       68.906754636224     132.989999980965      50.000000000000
      3921    2       59.062932545335     122.759999984952      50.000000000000
      3922    2       62.016079167135     124.464999980643      50.000000000000
      3923    2       59.062932545335     126.169999987268      50.000000000000
      3924    2       62.016079167135     127.874999982958      50.000000000000
      3925    2       59.062932545335     129.579999978649      50.000000000000
      3926    2       62.016079167135     131.284999985274      50.000000000000
      3927    2       59.062932545335     132.989999980965      50.000000000000
      3928    2       62.016079167135     134.694999987590      50.000000000000
      3929    2       64.969225799869     122.759999984952      50.000000000000
      3930    2       67.922372421669     124.464999980643      50.000000000000
      3931    2       64.969225799869     126.169999987268      50.000000000000
      3932    2       67.922372421669     127.874999982958      50.000000000000
      3933    2       64.969225799869     129.579999978649      50.000000000000
      3934    2       67.922372421669     131.284999985274      50.000000000000
      3935    2       64.969225799869     132.989999980965      50.000000000000
      3936    2       67.922372421669     134.694999987590      50.000000000000
      3937    1       71.859901258024     124.464999980643      50.000000000000
      3938    1       74.813047890758     122.759999984952      50.000000000000
      3939    1       71.859901258024     127.874999982958      50.000000000000
      3940    1       74.813047890758     126.169999987268      50.000000000000
      3941    1       71.859901258024     131.284999985274      50.000000000000
      3942    1       74.813047890758     129.579999978649      50.000000000000
      3943    1       71.859901258024     134.694999987590      50.000000000000
      3944    1       74.813047890758     132.989999980965      50.000000000000
      3945    1       77.766194512558     124.464999980643      50.000000000000
      3946    1       80.719341145291     122.759999984952      50.000000000000
      3947    1       77.766194512558     127.874999982958      50.000000000000
      3948    1       80.719341145291     126.169999987268      50.000000000000
      3949    1       77.766194512558     131.284999985274      50.000000000000
      3950    1       80.719341145291     129.579999978649      50.000000000000
      3951    1       77.766194512558     134.694999987590      50.000000000000
      3952    1       80.719341145291     132.989999980965      50.000000000000
      3953    2       70.875519054402     122.759999984952      50.000000000000
      3954    2       73.828665676202     124.464999980643      50.000000000000
      3955    2       70.875519054402     126.169999987268      50.000000000000
      3956    2       73.828665676202     127.874999982958      50.000000000000
      3957    2       70.875519054402     129.579999978649      50.000000000000
      3958    2       73.828665676202     131.284999985274      50.000000000000
      3959    2       70.875519054402     132.989999980965      50.000000000000
      3960    2       73.828665676202     134.694999987590      50.000000000000
      3961    2       76.781812308936     122.759999984952      50.000000000000
      3962    2       79.734958930736     124.464999980643      50.000000000000
      3963    2       76.781812308936     126.169999987268      50.000000000000
      3964    2       79.734958930736     127.874999982958      50.000000000000
      3965    2       76.781812308936     129.579999978649      50.000000000000
      3966    2       79.734958930736     131.284999985274      50.000000000000
      3967    2       76.781812308936     132.989999980965      50.000000000000
      3968    2       79.734958930736     134.694999987590      50.000000000000
      3969    1       83.672487767091     124.464999980643      50.000000000000
      3970    1       86.625634399825     122.759999984952      50.000000000000
      3971    1       83.672487767091     127.874999982958      50.000000000000
      3972    1       86.625634399825     126.169999987268      50.000000000000
      3973    1       83.672487767091     131.284999985274      50.000000000000
      3974    1       86.625634399825     129.579999978649      50.000000000000
      3975    1       83.672487767091     134.694999987590      50.000000000000
      3976    1       86.625634399825     132.989999980965      50.000000000000
      3977    1       89.578781021625     124.464999980643      50.000000000000
      3978    1       92.531927654358     122.759999984952      50.000000000000
      3979    1       89.578781021625     127.874999982958      50.000000000000
      3980    1       92.531927654358     126.169999987268      50.000000000000
      3981    1       89.578781021625     131.284999985274      50.000000000000
      3982    1       92.531927654358     129.579999978649      50.000000000000
      3983    1       89.578781021625     134.694999987590      50.000000000000
      3984    1       92.531927654358     132.989999980965      50.000000000000
      3985    2       82.688105563469     122.759999984952      50.000000000000
      3986    2       85.641252185269     124.464999980643      50.000000000000
      3987    2       82.688105563469     126.169999987268      50.000000000000
      3988    2       85.641252185269     127.874999982958      50.000000000000
      3989    2       82.688105563469     129.579999978649      50.000000000000
      3990    2       85.641252185269     131.284999985274      50.000000000000
      3991    2       82.688105563469     132.989999980965      50.000000000000
      3992    2       85.641252185269     134.694999987590      50.000000000000
      3993    2       88.594398818003     122.759999984952      50.000000000000
      3994    2       91.547545439803     124.464999980643      50.000000000000
      3995    2       88.594398818003     126.169999987268      50.000000000000
      3996    2       91.547545439803     127.874999982958      50.000000000000
      3997    2       88.594398818003     129.579999978649      50.000000000000
      3998    2       91.547545439803     131.284999985274      50.000000000000
      3999    2       88.594398818003     132.989999980965      50.000000000000
      4000    2       91.547545439803     134.694999987590      50.000000000000
      4001    1       95.485074276158     124.464999980643      50.000000000000
      4002    1       98.438220908892     122.759999984952      50.000000000000
      4003    1       95.485074276158     127.874999982958      50.000000000000
      4004    1       98.438220908892     126.169999987268      50.000000000000
      4005    1       95.485074276158     131.284999985274      50.000000000000
      4006    1       98.438220908892     129.579999978649      50.000000000000
      4007    1       95.485074276158     134.694999987590      50.000000000000
      4008    1       98.438220908892     132.989999980965      50.000000000000
      4009    1      101.391367530692     124.464999980643      50.000000000000
      4010    1      104.344514163425     122.759999984952      50.000000000000
      4011    1      101.391367530692     127.874999982958      50.000000000000
      4012    1      104.344514163425     126.169999987268      50.000000000000
      4013    1      101.391367530692     131.284999985274      50.000000000000
      4014    1      104.344514163425     129.579999978649      50.000000000000
      4015    1      101.391367530692     134.694999987590      50.000000000000
      4016    1      104.344514163425     132.989999980965      50.000000000000
      4017    2       94.500692072536     122.759999984952      50.000000000000
      4018    2       97.453838694336     124.464999980643      50.000000000000
      4019    2       94.500692072536     126.169999987268      50.000000000000
      4020    2       97.453838694336     127.874999982958      50.000000000000
      4021    2       94.500692072536     129.579999978649      50.000000000000
      4022    2       97.453838694336     131.284999985274      50.000000000000
      4023    2       94.500692072536     132.989999980965      50.000000000000
      4024    2       97.453838694336     134.694999987590      50.000000000000
      4025    2      100.406985327070     122.759999984952      50.000000000000
      4026    2      103.360131948870     124.464999980643      50.000000000000
      4027    2      100.406985327070     126.169999987268      50.000000000000
      4028    2      103.360131948870     127.874999982958      50.000000000000
      4029    2      100.406985327070     129.579999978649      50.000000000000
      4030    2      103.360131948870     131.284999985274      50.000000000000
      4031    2      100.406985327070     132.989999980965      50.000000000000
      4032    2      103.360131948870     134.694999987590      50.000000000000
      4033    1      107.297660785225     124.464999980643      50.000000000000
      4034    1      110.250807417959     122.759999984952      50.000000000000
      4035    1      107.297660785225     127.874999982958      50.000000000000
      4036    1      110.250807417959     126.169999987268      50.000000000000
      4037    1      107.297660785225     131.284999985274      50.000000000000
      4038    1      110.250807417959     129.579999978649      50.000000000000
      4039    1      107.297660785225     134.694999987590      50.000000000000
      4040    1      110.250807417959     132.989999980965      50.000000000000
      4041    1      113.203954039759     124.464999980643      50.000000000000
      4042    1      116.157100672492     122.759999984952      50.000000000000
      4043    1      113.203954039759     127.874999982958      50.000000000000
      4044    1      116.157100672492     126.169999987268      50.000000000000
      4045    1      113.203954039759     131.284999985274      50.000000000000
      4046    1      116.157100672492     129.579999978649      50.000000000000
      4047    1      113.203954039759     134.694999987590      50.000000000000
      4048    1      116.157100672492     132.989999980965      50.000000000000
      4049    2      106.313278581603     122.759999984952      50.000000000000
      4050    2      109.266425203403     124.464999980643      50.000000000000
      4051    2      106.313278581603     126.169999987268      50.000000000000
      4052    2      109.266425203403     127.874999982958      50.000000000000
      4053    2      106.313278581603     129.579999978649      50.000000000000
      4054    2      109.266425203403     131.284999985274      50.000000000000
      4055    2      106.313278581603     132.989999980965      50.000000000000
      4056    2      109.266425203403     134.694999987590      50.000000000000
      4057    2      112.219571836137     122.759999984952      50.000000000000
      4058    2      115.172718457937     124.464999980643      50.000000000000
      4059    2      112.219571836137     126.169999987268      50.000000000000
      4060    2      115.172718457937     127.874999982958      50.000000000000
      4061    2      112.219571836137     129.579999978649      50.000000000000
      4062    2      115.172718457937     131.284999985274      50.000000000000
      4063    2      112.219571836137     132.989999980965      50.000000000000
      4064    2      115.172718457937     134.694999987590      50.000000000000
      4065    1      119.110247294292     124.464999980643      50.000000000000
      4066    1      122.063393927026     122.759999984952      50.000000000000
      4067    1      119.110247294292     127.874999982958      50.000000000000
      4068    1      122.063393927026     126.169999987268      50.000000000000
      4069    1      119.110247294292     131.284999985274      50.000000000000
      4070    1      122.063393927026     129.579999978649      50.000000000000
      4071    1      119.110247294292     134.694999987590      50.000000000000
      4072    1      122.063393927026     132.989999980965      50.000000000000
      4073    1      125.016540548826     124.464999980643      50.000000000000
      4074    1      127.969687181559     122.759999984952      50.000000000000
      4075    1      125.016540548826     127.874999982958      50.000000000000
      4076    1      127.969687181559     126.169999987268      50.000000000000
      4077    1      125.016540548826     131.284999985274      50.000000000000
      4078    1      127.969687181559     129.579999978649      50.000000000000
      4079    1      125.016540548826     134.694999987590      50.000000000000
      4080    1      127.969687181559     132.989999980965      50.000000000000
      4081    2      118.125865090670     122.759999984952      50.000000000000
      4082    2      121.079011712470     124.464999980643      50.000000000000
      4083    2      118.125865090670     126.169999987268      50.000000000000
      4084    2      121.079011712470     127.874999982958      50.000000000000
      4085    2      118.125865090670     129.579999978649      50.000000000000
      4086    2      121.079011712470     131.284999985274      50.000000000000
      4087    2      118.125865090670     132.989999980965      50.000000000000
      4088    2      121.079011712470     134.694999987590      50.000000000000
      4089    2      124.032158345204     122.759999984952      50.000000000000
      4090    2      126.985304967004     124.464999980643      50.000000000000
      4091    2      124.032158345204     126.169999987268      50.000000000000
      4092    2      126.985304967004     127.874999982958      50.000000000000
      4093    2      124.032158345204     129.579999978649      50.000000000000
      4094    2      126.985304967004     131.284999985274      50.000000000000
      4095    2      124.032158345204     132.989999980965      50.000000000000
      4096    2      126.985304967004     134.694999987590      50.000000000000
      4097    1      130.922833803359     124.464999980643      50.000000000000
      4098    1      133.875980436093     122.759999984952      50.000000000000
      4099    1      130.922833803359     127.874999982958      50.000000000000
      4100    1      133.875980436093     126.169999987268      50.000000000000
      4101    1      130.922833803359     131.284999985274      50.000000000000
      4102    1      133.875980436093     129.579999978649      50.000000000000
      4103    1      130.922833803359     134.694999987590      50.000000000000
      4104    1      133.875980436093     132.989999980965      50.000000000000
      4105    1      136.829127057893     124.464999980643      50.000000000000
      4106    1      139.782273690626     122.759999984952      50.000000000000
      4107    1      136.829127057893     127.874999982958      50.000000000000
      4108    1      139.782273690626     126.169999987268      50.000000000000
      4109    1      136.829127057893     131.284999985274      50.000000000000
      4110    1      139.782273690626     129.579999978649      50.000000000000
      4111    1      136.829127057893     134.694999987590      50.000000000000
      4112    1      139.782273690626     132.989999980965      50.000000000000
      4113    2      129.938451599737     122.759999984952      50.000000000000
      4114    2      132.891598221537     124.464999980643      50.000000000000
      4115    2      129.938451599737     126.169999987268      50.000000000000
      4116    2      132.891598221537     127.874999982958      50.000000000000
      4117    2      129.938451599737     129.579999978649      50.000000000000
      4118    2      132.891598221537     131.284999985274      50.000000000000
      4119    2      129.938451599737     132.989999980965      50.000000000000
      4120    2      132.891598221537     134.694999987590      50.000000000000
      4121    2      135.844744854271     122.759999984952      50.000000000000
      4122    2      138.797891476071     124.464999980643      50.000000000000
      4123    2      135.844744854271     126.169999987268      50.000000000000
      4124    2      138.797891476071     127.874999982958      50.000000000000
      4125    2      135.844744854271     129.579999978649      50.000000000000
      4126    2      138.797891476071     131.284999985274      50.000000000000
      4127    2      135.844744854271     132.989999980965      50.000000000000
      4128    2      138.797891476071     134.694999987590      50.000000000000
      4129    1      142.735420312426     124.464999980643      50.000000000000
      4130    1      145.688566945160     122.759999984952      50.000000000000
      4131    1      142.735420312426     127.874999982958      50.000000000000
      4132    1      145.688566945160     126.169999987268      50.000000000000
      4133    1      142.735420312426     131.284999985274      50.000000000000
      4134    1      145.688566945160     129.579999978649      50.000000000000
      4135    1      142.735420312426     134.694999987590      50.000000000000
      4136    1      145.688566945160     132.989999980965      50.000000000000
      4137    1      148.641713566960     124.464999980643      50.000000000000
      4138    1      151.594860199693     122.759999984952      50.000000000000
      4139    1      148.641713566960     127.874999982958      50.000000000000
      4140    1      151.594860199693     126.169999987268      50.000000000000
      4141    1      148.641713566960     131.284999985274      50.000000000000
      4142    1      151.594860199693     129.579999978649      50.000000000000
      4143    1      148.641713566960     134.694999987590      50.000000000000
      4144    1      151.594860199693     132.989999980965      50.000000000000
      4145    2      141.751038108804     122.759999984952      50.000000000000
      4146    2      144.704184730604     124.464999980643      50.000000000000
      4147    2      141.751038108804     126.169999987268      50.000000000000
      4148    2      144.704184730604     127.874999982958      50.000000000000
      4149    2      141.751038108804     129.579999978649      50.000000000000
      4150    2      144.704184730604     131.284999985274      50.000000000000
      4151    2      141.751038108804     132.989999980965      50.000000000000
      4152    2      144.704184730604     134.694999987590      50.000000000000
      4153    2      147.657331363338     122.759999984952      50.000000000000
      4154    2      150.610477985138     124.464999980643      50.000000000000
      4155    2      147.657331363338     126.169999987268      50.000000000000
      4156    2      150.610477985138     127.874999982958      50.000000000000
      4157    2      147.657331363338     129.579999978649      50.000000000000
      4158    2      150.610477985138     131.284999985274      50.000000000000
      4159    2      147.657331363338     132.989999980965      50.000000000000
      4160    2      150.610477985138     134.694999987590      50.000000000000
      4161    1        0.984382203622     138.104999978971      50.000000000000
      4162    1        3.937528836356     136.399999983280      50.000000000000
      4163    1        0.984382203622     141.514999981286      50.000000000000
      4164    1        3.937528836356     139.809999985596      50.000000000000
      4165    1        0.984382203622     144.924999983602      50.000000000000
      4166    1        3.937528836356     143.219999976977      50.000000000000
      4167    1        0.984382203622     148.334999985918      50.000000000000
      4168    1        3.937528836356     146.629999979293      50.000000000000
      4169    1        6.890675458156     138.104999978971      50.000000000000
      4170    1        9.843822090889     136.399999983280      50.000000000000
      4171    1        6.890675458156     141.514999981286      50.000000000000
      4172    1        9.843822090889     139.809999985596      50.000000000000
      4173    1        6.890675458156     144.924999983602      50.000000000000
      4174    1        9.843822090889     143.219999976977      50.000000000000
      4175    1        6.890675458156     148.334999985918      50.000000000000
      4176    1        9.843822090889     146.629999979293      50.000000000000
      4177    2        0.000000000000     136.399999983280      50.000000000000
      4178    2        2.953146621800     138.104999978971      50.000000000000
      4179    2        0.000000000000     139.809999985596      50.000000000000
      4180    2        2.953146621800     141.514999981286      50.000000000000
      4181    2        0.000000000000     143.219999976977      50.000000000000
      4182    2        2.953146621800     144.924999983602      50.000000000000
      4183    2        0.000000000000     146.629999979293      50.000000000000
      4184    2        2.953146621800     148.334999985918      50.000000000000
      4185    2        5.906293254534     136.399999983280      50.000000000000
      4186    2        8.859439876334     138.104999978971      50.000000000000
      4187    2        5.906293254534     139.809999985596      50.000000000000
      4188    2        8.859439876334     141.514999981286      50.000000000000
      4189    2        5.906293254534     143.219999976977      50.000000000000
      4190    2        8.859439876334     144.924999983602      50.000000000000
      4191    2        5.906293254534     146.629999979293      50.000000000000
      4192    2        8.859439876334     148.334999985918      50.000000000000
      4193    1       12.796968712689     138.104999978971      50.000000000000
      4194    1       15.750115345423     136.399999983280      50.000000000000
      4195    1       12.796968712689     141.514999981286      50.000000000000
      4196    1       15.750115345423     139.809999985596      50.000000000000
      4197    1       12.796968712689     144.924999983602      50.000000000000
      4198    1       15.750115345423     143.219999976977      50.000000000000
      4199    1       12.796968712689     148.334999985918      50.000000000000
      4200    1       15.750115345423     146.629999979293      50.000000000000
      4201    1       18.703261967223     138.104999978971      50.000000000000
      4202    1       21.656408599956     136.399999983280      50.000000000000
      4203    1       18.703261967223     141.514999981286      50.000000000000
      4204    1       21.656408599956     139.809999985596      50.000000000000
      4205    1       18.703261967223     144.924999983602      50.000000000000
      4206    1       21.656408599956     143.219999976977      50.000000000000
      4207    1       18.703261967223     148.334999985918      50.000000000000
      4208    1       21.656408599956     146.629999979293      50.000000000000
      4209    2       11.812586509067     136.399999983280      50.000000000000
      4210    2       14.765733130867     138.104999978971      50.000000000000
      4211    2       11.812586509067     139.809999985596      50.000000000000
      4212    2       14.765733130867     141.514999981286      50.000000000000
      4213    2       11.812586509067     143.219999976977      50.000000000000
      4214    2       14.765733130867     144.924999983602      50.000000000000
      4215    2       11.812586509067     146.629999979293      50.000000000000
      4216    2       14.765733130867     148.334999985918      50.000000000000
      4217    2       17.718879763601     136.399999983280      50.000000000000
      4218    2       20.672026385401     138.104999978971      50.000000000000
      4219    2       17.718879763601     139.809999985596      50.000000000000
      4220    2       20.672026385401     141.514999981286      50.000000000000
      4221    2       17.718879763601     143.219999976977      50.000000000000
      4222    2       20.672026385401     144.924999983602      50.000000000000
      4223    2       17.718879763601     146.629999979293      50.000000000000
      4224    2       20.672026385401     148.334999985918      50.000000000000
      4225    1       24.609555221756     138.104999978971      50.000000000000
      4226    1       27.562701854490     136.399999983280      50.000000000000
      4227    1       24.609555221756     141.514999981286      50.000000000000
      4228    1       27.562701854490     139.809999985596      50.000000000000
      4229    1       24.609555221756     144.924999983602      50.000000000000
      4230    1       27.562701854490     143.219999976977      50.000000000000
      4231    1       24.609555221756     148.334999985918      50.000000000000
      4232    1       27.562701854490     146.629999979293      50.000000000000
      4233    1       30.515848476290     138.104999978971      50.000000000000
      4234    1       33.468995109023     136.399999983280      50.000000000000
      4235    1       30.515848476290     141.514999981286      50.000000000000
      4236    1       33.468995109023     139.809999985596      50.000000000000
      4237    1       30.515848476290     144.924999983602      50.000000000000
      4238    1       33.468995109023     143.219999976977      50.000000000000
      4239    1       30.515848476290     148.334999985918      50.000000000000
      4240    1       33.468995109023     146.629999979293      50.000000000000
      4241    2       23.625173018134     136.399999983280      50.000000000000
      4242    2       26.578319639934     138.104999978971      50.000000000000
      4243    2       23.625173018134     139.809999985596      50.000000000000
      4244    2       26.578319639934     141.514999981286      50.000000000000
      4245    2       23.625173018134     143.219999976977      50.000000000000
      4246    2       26.578319639934     144.924999983602      50.000000000000
      4247    2       23.625173018134     146.629999979293      50.000000000000
      4248    2       26.578319639934     148.334999985918      50.000000000000
      4249    2       29.531466272668     136.399999983280      50.000000000000
      4250    2       32.484612894468     138.104999978971      50.000000000000
      4251    2       29.531466272668     139.809999985596      50.000000000000
      4252    2       32.484612894468     141.514999981286      50.000000000000
      4253    2       29.531466272668     143.219999976977      50.000000000000
      4254    2       32.484612894468     144.924999983602      50.000000000000
      4255    2       29.531466272668     146.629999979293      50.000000000000
      4256    2       32.484612894468     148.334999985918      50.000000000000
      4257    1       36.422141730823     138.104999978971      50.000000000000
      4258    1       39.375288363557     136.399999983280      50.000000000000
      4259    1       36.422141730823     141.514999981286      50.000000000000
      4260    1       39.375288363557     139.809999985596      50.000000000000
      4261    1       36.422141730823     144.924999983602      50.000000000000
      4262    1       39.375288363557     143.219999976977      50.000000000000
      4263    1       36.422141730823     148.334999985918      50.000000000000
      4264    1       39.375288363557     146.629999979293      50.000000000000
      4265    1       42.328434985357     138.104999978971      50.000000000000
      4266    1       45.281581618090     136.399999983280      50.000000000000
      4267    1       42.328434985357     141.514999981286      50.000000000000
      4268    1       45.281581618090     139.809999985596      50.000000000000
      4269    1       42.328434985357     144.924999983602      50.000000000000
      4270    1       45.281581618090     143.219999976977      50.000000000000
      4271    1       42.328434985357     148.334999985918      50.000000000000
      4272    1       45.281581618090     146.629999979293      50.000000000000
      4273    2       35.437759527201     136.399999983280      50.000000000000
      4274    2       38.390906149001     138.104999978971      50.000000000000
      4275    2       35.437759527201     139.809999985596      50.000000000000
      4276    2       38.390906149001     141.514999981286      50.000000000000
      4277    2       35.437759527201     143.219999976977      50.000000000000
      4278    2       38.390906149001     144.924999983602      50.000000000000
      4279    2       35.437759527201     146.629999979293      50.000000000000
      4280    2       38.390906149001     148.334999985918      50.000000000000
      4281    2       41.344052781735     136.399999983280      50.000000000000
      4282    2       44.297199403535     138.104999978971      50.000000000000
      4283    2       41.344052781735     139.809999985596      50.000000000000
      4284    2       44.297199403535     141.514999981286      50.000000000000
      4285    2       41.344052781735     143.219999976977      50.000000000000
      4286    2       44.297199403535     144.924999983602      50.000000000000
      4287    2       41.344052781735     146.629999979293      50.000000000000
      4288    2       44.297199403535     148.334999985918      50.000000000000
      4289    1       48.234728239890     138.104999978971      50.000000000000
      4290    1       51.187874872624     136.399999983280      50.000000000000
      4291    1       48.234728239890     141.514999981286      50.000000000000
      4292    1       51.187874872624     139.809999985596      50.000000000000
      4293    1       48.234728239890     144.924999983602      50.000000000000
      4294    1       51.187874872624     143.219999976977      50.000000000000
      4295    1       48.234728239890     148.334999985918      50.000000000000
      4296    1       51.187874872624     146.629999979293      50.000000000000
      4297    1       54.141021494424     138.104999978971      50.000000000000
      4298    1       57.094168127157     136.399999983280      50.000000000000
      4299    1       54.141021494424     141.514999981286      50.000000000000
      4300    1       57.094168127157     139.809999985596      50.000000000000
      4301    1       54.141021494424     144.924999983602      50.000000000000
      4302    1       57.094168127157     143.219999976977      50.000000000000
      4303    1       54.141021494424     148.334999985918      50.000000000000
      4304    1       57.094168127157     146.629999979293      50.000000000000
      4305    2       47.250346036268     136.399999983280      50.000000000000
      4306    2       50.203492658068     138.104999978971      50.000000000000
      4307    2       47.250346036268     139.809999985596      50.000000000000
      4308    2       50.203492658068     141.514999981286      50.000000000000
      4309    2       47.250346036268     143.219999976977      50.000000000000
      4310    2       50.203492658068     144.924999983602      50.000000000000
      4311    2       47.250346036268     146.629999979293      50.000000000000
      4312    2       50.203492658068     148.334999985918      50.000000000000
      4313    2       53.156639290802     136.399999983280      50.000000000000
      4314    2       56.109785912602     138.104999978971      50.000000000000
      4315    2       53.156639290802     139.809999985596      50.000000000000
      4316    2       56.109785912602     141.514999981286      50.000000000000
      4317    2       53.156639290802     143.219999976977      50.000000000000
      4318    2       56.109785912602     144.924999983602      50.000000000000
      4319    2       53.156639290802     146.629999979293      50.000000000000
      4320    2       56.109785912602     148.334999985918      50.000000000000
      4321    1       60.047314748957     138.104999978971      50.000000000000
      4322    1       63.000461381691     136.399999983280      50.000000000000
      4323    1       60.047314748957     141.514999981286      50.000000000000
      4324    1       63.000461381691     139.809999985596      50.000000000000
      4325    1       60.047314748957     144.924999983602      50.000000000000
      4326    1       63.000461381691     143.219999976977      50.000000000000
      4327    1       60.047314748957     148.334999985918      50.000000000000
      4328    1       63.000461381691     146.629999979293      50.000000000000
      4329    1       65.953608003491     138.104999978971      50.000000000000
      4330    1       68.906754636224     136.399999983280      50.000000000000
      4331    1       65.953608003491     141.514999981286      50.000000000000
      4332    1       68.906754636224     139.809999985596      50.000000000000
      4333    1       65.953608003491     144.924999983602      50.000000000000
      4334    1       68.906754636224     143.219999976977      50.000000000000
      4335    1       65.953608003491     148.334999985918      50.000000000000
      4336    1       68.906754636224     146.629999979293      50.000000000000
      4337    2       59.062932545335     136.399999983280      50.000000000000
      4338    2       62.016079167135     138.104999978971      50.000000000000
      4339    2       59.062932545335     139.809999985596      50.000000000000
      4340    2       62.016079167135     141.514999981286      50.000000000000
      4341    2       59.062932545335     143.219999976977      50.000000000000
      4342    2       62.016079167135     144.924999983602      50.000000000000
      4343    2       59.062932545335     146.629999979293      50.000000000000
      4344    2       62.016079167135     148.334999985918      50.000000000000
      4345    2       64.969225799869     136.399999983280      50.000000000000
      4346    2       67.922372421669     138.104999978971      50.000000000000
      4347    2       64.969225799869     139.809999985596      50.000000000000
      4348    2       67.922372421669     141.514999981286      50.000000000000
      4349    2       64.969225799869     143.219999976977      50.000000000000
      4350    2       67.922372421669     144.924999983602      50.000000000000
      4351    2       64.969225799869     146.629999979293      50.000000000000
      4352    2       67.922372421669     148.334999985918      50.000000000000
      4353    1       71.859901258024     138.104999978971      50.000000000000
      4354    1       74.813047890758     136.399999983280      50.000000000000
      4355    1       71.859901258024     141.514999981286      50.000000000000
      4356    1       74.813047890758     139.809999985596      50.000000000000
      4357    1       71.859901258024     144.924999983602      50.000000000000
      4358    1       74.813047890758     143.219999976977      50.000000000000
      4359    1       71.859901258024     148.334999985918      50.000000000000
      4360    1       74.813047890758     146.629999979293      50.000000000000
      4361    1       77.766194512558     138.104999978971      50.000000000000
      4362    1       80.719341145291     136.399999983280      50.000000000000
      4363    1       77.766194512558     141.514999981286      50.000000000000
      4364    1       80.719341145291     139.809999985596      50.000000000000
      4365    1       77.766194512558     144.924999983602      50.000000000000
      4366    1       80.719341145291     143.219999976977      50.000000000000
      4367    1       77.766194512558     148.334999985918      50.000000000000
      4368    1       80.719341145291     146.629999979293      50.000000000000
      4369    2       70.875519054402     136.399999983280      50.000000000000
      4370    2       73.828665676202     138.104999978971      50.000000000000
      4371    2       70.875519054402     139.809999985596      50.000000000000
      4372    2       73.828665676202     141.514999981286      50.000000000000
      4373    2       70.875519054402     143.219999976977      50.000000000000
      4374    2       73.828665676202     144.924999983602      50.000000000000
      4375    2       70.875519054402     146.629999979293      50.000000000000
      4376    2       73.828665676202     148.334999985918      50.000000000000
      4377    2       76.781812308936     136.399999983280      50.000000000000
      4378    2       79.734958930736     138.104999978971      50.000000000000
      4379    2       76.781812308936     139.809999985596      50.000000000000
      4380    2       79.734958930736     141.514999981286      50.000000000000
      4381    2       76.781812308936     143.219999976977      50.000000000000
      4382    2       79.734958930736     144.924999983602      50.000000000000
      4383    2       76.781812308936     146.629999979293      50.000000000000
      4384    2       79.734958930736     148.334999985918      50.000000000000
      4385    1       83.672487767091     138.104999978971      50.000000000000
      4386    1       86.625634399825     136.399999983280      50.000000000000
      4387    1       83.672487767091     141.514999981286      50.000000000000
      4388    1       86.625634399825     139.809999985596      50.000000000000
      4389    1       83.672487767091     144.924999983602      50.000000000000
      4390    1       86.625634399825     143.219999976977      50.000000000000
      4391    1       83.672487767091     148.334999985918      50.000000000000
      4392    1       86.625634399825     146.629999979293      50.000000000000
      4393    1       89.578781021625     138.104999978971      50.000000000000
      4394    1       92.531927654358     136.399999983280      50.000000000000
      4395    1       89.578781021625     141.514999981286      50.000000000000
      4396    1       92.531927654358     139.809999985596      50.000000000000
      4397    1       89.578781021625     144.924999983602      50.000000000000
      4398    1       92.531927654358     143.219999976977      50.000000000000
      4399    1       89.578781021625     148.334999985918      50.000000000000
      4400    1       92.531927654358     146.629999979293      50.000000000000
      4401    2       82.688105563469     136.399999983280      50.000000000000
      4402    2       85.641252185269     138.104999978971      50.000000000000
      4403    2       82.688105563469     139.809999985596      50.000000000000
      4404    2       85.641252185269     141.514999981286      50.000000000000
      4405    2       82.688105563469     143.219999976977      50.000000000000
      4406    2       85.641252185269     144.924999983602      50.000000000000
      4407    2       82.688105563469     146.629999979293      50.000000000000
      4408    2       85.641252185269     148.334999985918      50.000000000000
      4409    2       88.594398818003     136.399999983280      50.000000000000
      4410    2       91.547545439803     138.104999978971      50.000000000000
      4411    2       88.594398818003     139.809999985596      50.000000000000
      4412    2       91.547545439803     141.514999981286      50.000000000000
      4413    2       88.594398818003     143.219999976977      50.000000000000
      4414    2       91.547545439803     144.924999983602      50.000000000000
      4415    2       88.594398818003     146.629999979293      50.000000000000
      4416    2       91.547545439803     148.334999985918      50.000000000000
      4417    1       95.485074276158     138.104999978971      50.000000000000
      4418    1       98.438220908892     136.399999983280      50.000000000000
      4419    1       95.485074276158     141.514999981286      50.000000000000
      4420    1       98.438220908892     139.809999985596      50.000000000000
      4421    1       95.485074276158     144.924999983602      50.000000000000
      4422    1       98.438220908892     143.219999976977      50.000000000000
      4423    1       95.485074276158     148.334999985918      50.000000000000
      4424    1       98.438220908892     146.629999979293      50.000000000000
      4425    1      101.391367530692     138.104999978971      50.000000000000
      4426    1      104.344514163425     136.399999983280      50.000000000000
      4427    1      101.391367530692     141.514999981286      50.000000000000
      4428    1      104.344514163425     139.809999985596      50.000000000000
      4429    1      101.391367530692     144.924999983602      50.000000000000
      4430    1      104.344514163425     143.219999976977      50.000000000000
      4431    1      101.391367530692     148.334999985918      50.000000000000
      4432    1      104.344514163425     146.629999979293      50.000000000000
      4433    2       94.500692072536     136.399999983280      50.000000000000
      4434    2       97.453838694336     138.104999978971      50.000000000000
      4435    2       94.500692072536     139.809999985596      50.000000000000
      4436    2       97.453838694336     141.514999981286      50.000000000000
      4437    2       94.500692072536     143.219999976977      50.000000000000
      4438    2       97.453838694336     144.924999983602      50.000000000000
      4439    2       94.500692072536     146.629999979293      50.000000000000
      4440    2       97.453838694336     148.334999985918      50.000000000000
      4441    2      100.406985327070     136.399999983280      50.000000000000
      4442    2      103.360131948870     138.104999978971      50.000000000000
      4443    2      100.406985327070     139.809999985596      50.000000000000
      4444    2      103.360131948870     141.514999981286      50.000000000000
      4445    2      100.406985327070     143.219999976977      50.000000000000
      4446    2      103.360131948870     144.924999983602      50.000000000000
      4447    2      100.406985327070     146.629999979293      50.000000000000
      4448    2      103.360131948870     148.334999985918      50.000000000000
      4449    1      107.297660785225     138.104999978971      50.000000000000
      4450    1      110.250807417959     136.399999983280      50.000000000000
      4451    1      107.297660785225     141.514999981286      50.000000000000
      4452    1      110.250807417959     139.809999985596      50.000000000000
      4453    1      107.297660785225     144.924999983602      50.000000000000
      4454    1      110.250807417959     143.219999976977      50.000000000000
      4455    1      107.297660785225     148.334999985918      50.000000000000
      4456    1      110.250807417959     146.629999979293      50.000000000000
      4457    1      113.203954039759     138.104999978971      50.000000000000
      4458    1      116.157100672492     136.399999983280      50.000000000000
      4459    1      113.203954039759     141.514999981286      50.000000000000
      4460    1      116.157100672492     139.809999985596      50.000000000000
      4461    1      113.203954039759     144.924999983602      50.000000000000
      4462    1      116.157100672492     143.219999976977      50.000000000000
      4463    1      113.203954039759     148.334999985918      50.000000000000
      4464    1      116.157100672492     146.629999979293      50.000000000000
      4465    2      106.313278581603     136.399999983280      50.000000000000
      4466    2      109.266425203403     138.104999978971      50.000000000000
      4467    2      106.313278581603     139.809999985596      50.000000000000
      4468    2      109.266425203403     141.514999981286      50.000000000000
      4469    2      106.313278581603     143.219999976977      50.000000000000
      4470    2      109.266425203403     144.924999983602      50.000000000000
      4471    2      106.313278581603     146.629999979293      50.000000000000
      4472    2      109.266425203403     148.334999985918      50.000000000000
      4473    2      112.219571836137     136.399999983280      50.000000000000
      4474    2      115.172718457937     138.104999978971      50.000000000000
      4475    2      112.219571836137     139.809999985596      50.000000000000
      4476    2      115.172718457937     141.514999981286      50.000000000000
      4477    2      112.219571836137     143.219999976977      50.000000000000
      4478    2      115.172718457937     144.924999983602      50.000000000000
      4479    2      112.219571836137     146.629999979293      50.000000000000
      4480    2      115.172718457937     148.334999985918      50.000000000000
      4481    1      119.110247294292     138.104999978971      50.000000000000
      4482    1      122.063393927026     136.399999983280      50.000000000000
      4483    1      119.110247294292     141.514999981286      50.000000000000
      4484    1      122.063393927026     139.809999985596      50.000000000000
      4485    1      119.110247294292     144.924999983602      50.000000000000
      4486    1      122.063393927026     143.219999976977      50.000000000000
      4487    1      119.110247294292     148.334999985918      50.000000000000
      4488    1      122.063393927026     146.629999979293      50.000000000000
      4489    1      125.016540548826     138.104999978971      50.000000000000
      4490    1      127.969687181559     136.399999983280      50.000000000000
      4491    1      125.016540548826     141.514999981286      50.000000000000
      4492    1      127.969687181559     139.809999985596      50.000000000000
      4493    1      125.016540548826     144.924999983602      50.000000000000
      4494    1      127.969687181559     143.219999976977      50.000000000000
      4495    1      125.016540548826     148.334999985918      50.000000000000
      4496    1      127.969687181559     146.629999979293      50.000000000000
      4497    2      118.125865090670     136.399999983280      50.000000000000
      4498    2      121.079011712470     138.104999978971      50.000000000000
      4499    2      118.125865090670     139.809999985596      50.000000000000
      4500    2      121.079011712470     141.514999981286      50.000000000000
      4501    2      118.125865090670     143.219999976977      50.000000000000
      4502    2      121.079011712470     144.924999983602      50.000000000000
      4503    2      118.125865090670     146.629999979293      50.000000000000
      4504    2      121.079011712470     148.334999985918      50.000000000000
      4505    2      124.032158345204     136.399999983280      50.000000000000
      4506    2      126.985304967004     138.104999978971      50.000000000000
      4507    2      124.032158345204     139.809999985596      50.000000000000
      4508    2      126.985304967004     141.514999981286      50.000000000000
      4509    2      124.032158345204     143.219999976977      50.000000000000
      4510    2      126.985304967004     144.924999983602      50.000000000000
      4511    2      124.032158345204     146.629999979293      50.000000000000
      4512    2      126.985304967004     148.334999985918      50.000000000000
      4513    1      130.922833803359     138.104999978971      50.000000000000
      4514    1      133.875980436093     136.399999983280      50.000000000000
      4515    1      130.922833803359     141.514999981286      50.000000000000
      4516    1      133.875980436093     139.809999985596      50.000000000000
      4517    1      130.922833803359     144.924999983602      50.000000000000
      4518    1      133.875980436093     143.219999976977      50.000000000000
      4519    1      130.922833803359     148.334999985918      50.000000000000
      4520    1      133.875980436093     146.629999979293      50.000000000000
      4521    1      136.829127057893     138.104999978971      50.000000000000
      4522    1      139.782273690626     136.399999983280      50.000000000000
      4523    1      136.829127057893     141.514999981286      50.000000000000
      4524    1      139.782273690626     139.809999985596      50.000000000000
      4525    1      136.829127057893     144.924999983602      50.000000000000
      4526    1      139.782273690626     143.219999976977      50.000000000000
      4527    1      136.829127057893     148.334999985918      50.000000000000
      4528    1      139.782273690626     146.629999979293      50.000000000000
      4529    2      129.938451599737     136.399999983280      50.000000000000
      4530    2      132.891598221537     138.104999978971      50.000000000000
      4531    2      129.938451599737     139.809999985596      50.000000000000
      4532    2      132.891598221537     141.514999981286      50.000000000000
      4533    2      129.938451599737     143.219999976977      50.000000000000
      4534    2      132.891598221537     144.924999983602      50.000000000000
      4535    2      129.938451599737     146.629999979293      50.000000000000
      4536    2      132.891598221537     148.334999985918      50.000000000000
      4537    2      135.844744854271     136.399999983280      50.000000000000
      4538    2      138.797891476071     138.104999978971      50.000000000000
      4539    2      135.844744854271     139.809999985596      50.000000000000
      4540    2      138.797891476071     141.514999981286      50.000000000000
      4541    2      135.844744854271     143.219999976977      50.000000000000
      4542    2      138.797891476071     144.924999983602      50.000000000000
      4543    2      135.844744854271     146.629999979293      50.000000000000
      4544    2      138.797891476071     148.334999985918      50.000000000000
      4545    1      142.735420312426     138.104999978971      50.000000000000
      4546    1      145.688566945160     136.399999983280      50.000000000000
      4547    1      142.735420312426     141.514999981286      50.000000000000
      4548    1      145.688566945160     139.809999985596      50.000000000000
      4549    1      142.735420312426     144.924999983602      50.000000000000
      4550    1      145.688566945160     143.219999976977      50.000000000000
      4551    1      142.735420312426     148.334999985918      50.000000000000
      4552    1      145.688566945160     146.629999979293      50.000000000000
      4553    1      148.641713566960     138.104999978971      50.000000000000
      4554    1      151.594860199693     136.399999983280      50.000000000000
      4555    1      148.641713566960     141.514999981286      50.000000000000
      4556    1      151.594860199693     139.809999985596      50.000000000000
      4557    1      148.641713566960     144.924999983602      50.000000000000
      4558    1      151.594860199693     143.219999976977      50.000000000000
      4559    1      148.641713566960     148.334999985918      50.000000000000
      4560    1      151.594860199693     146.629999979293      50.000000000000
      4561    2      141.751038108804     136.399999983280      50.000000000000
      4562    2      144.704184730604     138.104999978971      50.000000000000
      4563    2      141.751038108804     139.809999985596      50.000000000000
      4564    2      144.704184730604     141.514999981286      50.000000000000
      4565    2      141.751038108804     143.219999976977      50.000000000000
      4566    2      144.704184730604     144.924999983602      50.000000000000
      4567    2      141.751038108804     146.629999979293      50.000000000000
      4568    2      144.704184730604     148.334999985918      50.000000000000
      4569    2      147.657331363338     136.399999983280      50.000000000000
      4570    2      150.610477985138     138.104999978971      50.000000000000
      4571    2      147.657331363338     139.809999985596      50.000000000000
      4572    2      150.610477985138     141.514999981286      50.000000000000
      4573    2      147.657331363338     143.219999976977      50.000000000000
      4574    2      150.610477985138     144.924999983602      50.000000000000
      4575    2      147.657331363338     146.629999979293      50.000000000000
      4576    2      150.610477985138     148.334999985918      50.000000000000
