LAMMPS data file via write_data, version 22 Jul 2025, timestep = 0, units = metal

8536 atoms
2 atom types

0 136.400008 xlo xhi
0 324.846137 ylo yhi
-53 53 zlo zhi

Masses

1 26.9815386
2 14.007

Atoms # atomic

1 1 1.7050001 0.984401920978 1.04689075 0 0 0
2 1 0 3.937519089511 1.04689075 0 0 0
3 1 5.114983249999 0.984401920978 1.04689075 0 0 0
4 1 3.409983149999 3.937519089511 1.04689075 0 0 0
5 1 1.7050001 6.890665789511 1.04689075 0 0 0
6 1 0 9.843842020978 1.04689075 0 0 0
7 1 8.524983449999 0.984401920978 1.04689075 0 0 0
8 1 6.8200004 3.937519089511 1.04689075 0 0 0
9 1 5.114983249999 6.890665789511 1.04689075 0 0 0
10 1 3.409983149999 9.843842020978 1.04689075 0 0 0
11 1 1.7050001 12.796959189511 1.04689075 0 0 0
12 1 11.934983649999 0.984401920978 1.04689075 0 0 0
13 1 10.2300006 3.937519089511 1.04689075 0 0 0
14 1 8.524983449999 6.890665789511 1.04689075 0 0 0
15 1 6.8200004 9.843842020978 1.04689075 0 0 0
16 1 5.114983249999 12.796959189511 1.04689075 0 0 0
17 1 15.344983849999 0.984401920978 1.04689075 0 0 0
18 1 13.639983749999 3.937519089511 1.04689075 0 0 0
19 1 11.934983649999 6.890665789511 1.04689075 0 0 0
20 1 10.2300006 9.843842020978 1.04689075 0 0 0
21 1 8.524983449999 12.796959189511 1.04689075 0 0 0
22 2 0 1.968774310489 1.04689075 0 0 0
23 2 3.4100002 1.968774310489 1.04689075 0 0 0
24 2 1.705017150001 4.921891479022 1.04689075 0 0 0
25 2 0 7.875038179022 1.04689075 0 0 0
26 2 6.8200004 1.968774310489 1.04689075 0 0 0
27 2 5.115017350001 4.921891479022 1.04689075 0 0 0
28 2 3.4100002 7.875038179022 1.04689075 0 0 0
29 2 1.705017150001 10.828214410489 1.04689075 0 0 0
30 2 0 13.781331579022 1.04689075 0 0 0
31 2 10.230017650001 1.968774310489 1.04689075 0 0 0
32 2 8.5250005 4.921891479022 1.04689075 0 0 0
33 2 6.8200004 7.875038179022 1.04689075 0 0 0
34 2 5.115017350001 10.828214410489 1.04689075 0 0 0
35 2 3.4100002 13.781331579022 1.04689075 0 0 0
36 2 13.640017850001 1.968774310489 1.04689075 0 0 0
37 2 11.935017750001 4.921891479022 1.04689075 0 0 0
38 2 10.230017650001 7.875038179022 1.04689075 0 0 0
39 2 8.5250005 10.828214410489 1.04689075 0 0 0
40 2 6.8200004 13.781331579022 1.04689075 0 0 0
41 1 0 15.750135420978 1.04689075 0 0 0
42 1 3.409983149999 15.750135420978 1.04689075 0 0 0
43 1 1.7050001 18.703252589511 1.04689075 0 0 0
44 1 0 21.656399289511 1.04689075 0 0 0
45 1 6.8200004 15.750135420978 1.04689075 0 0 0
46 1 5.114983249999 18.703252589511 1.04689075 0 0 0
47 1 3.409983149999 21.656399289511 1.04689075 0 0 0
48 1 1.7050001 24.609545989511 1.04689075 0 0 0
49 1 0 27.562722220978 1.04689075 0 0 0
50 2 1.705017150001 16.734478279022 1.04689075 0 0 0
51 2 0 19.687654510489 1.04689075 0 0 0
52 2 5.115017350001 16.734478279022 1.04689075 0 0 0
53 2 3.4100002 19.687654510489 1.04689075 0 0 0
54 2 1.705017150001 22.640801210489 1.04689075 0 0 0
55 2 0 25.593947910489 1.04689075 0 0 0
56 1 15.344983849999 6.890665789511 1.04689075 0 0 0
57 1 13.639983749999 9.843842020978 1.04689075 0 0 0
58 1 11.934983649999 12.796959189511 1.04689075 0 0 0
59 2 32.3950019 28.547065079022 1.04689075 0 0 0
60 2 15.3450009 4.921891479022 1.04689075 0 0 0
61 2 13.640017850001 7.875038179022 1.04689075 0 0 0
62 2 11.935017750001 10.828214410489 1.04689075 0 0 0
63 2 10.230017650001 13.781331579022 1.04689075 0 0 0
64 2 15.3450009 10.828214410489 1.04689075 0 0 0
65 2 13.640017850001 13.781331579022 1.04689075 0 0 0
66 1 10.2300006 15.750135420978 1.04689075 0 0 0
67 1 8.524983449999 18.703252589511 1.04689075 0 0 0
68 1 6.8200004 21.656399289511 1.04689075 0 0 0
69 1 5.114983249999 24.609545989511 1.04689075 0 0 0
70 1 3.409983149999 27.562722220978 1.04689075 0 0 0
71 1 13.639983749999 15.750135420978 1.04689075 0 0 0
72 1 11.934983649999 18.703252589511 1.04689075 0 0 0
73 1 10.2300006 21.656399289511 1.04689075 0 0 0
74 1 8.524983449999 24.609545989511 1.04689075 0 0 0
75 1 6.8200004 27.562722220978 1.04689075 0 0 0
76 1 15.344983849999 18.703252589511 1.04689075 0 0 0
77 1 13.639983749999 21.656399289511 1.04689075 0 0 0
78 1 11.934983649999 24.609545989511 1.04689075 0 0 0
79 1 10.2300006 27.562722220978 1.04689075 0 0 0
80 1 15.344983849999 24.609545989511 1.04689075 0 0 0
81 1 13.639983749999 27.562722220978 1.04689075 0 0 0
82 2 8.5250005 16.734478279022 1.04689075 0 0 0
83 2 6.8200004 19.687654510489 1.04689075 0 0 0
84 2 5.115017350001 22.640801210489 1.04689075 0 0 0
85 2 3.4100002 25.593947910489 1.04689075 0 0 0
86 2 1.705017150001 28.547065079022 1.04689075 0 0 0
87 2 11.935017750001 16.734478279022 1.04689075 0 0 0
88 2 10.230017650001 19.687654510489 1.04689075 0 0 0
89 2 8.5250005 22.640801210489 1.04689075 0 0 0
90 2 6.8200004 25.593947910489 1.04689075 0 0 0
91 2 5.115017350001 28.547065079022 1.04689075 0 0 0
92 2 28.985018750001 28.547065079022 1.04689075 0 0 0
93 2 13.640017850001 19.687654510489 1.04689075 0 0 0
94 2 11.935017750001 22.640801210489 1.04689075 0 0 0
95 2 10.230017650001 25.593947910489 1.04689075 0 0 0
96 2 8.5250005 28.547065079022 1.04689075 0 0 0
97 2 15.3450009 22.640801210489 1.04689075 0 0 0
98 2 13.640017850001 25.593947910489 1.04689075 0 0 0
99 2 11.935017750001 28.547065079022 1.04689075 0 0 0
100 2 15.3450009 28.547065079022 1.04689075 0 0 0
101 1 18.7550011 0.984401920978 1.04689075 0 0 0
102 1 17.050001 3.937519089511 1.04689075 0 0 0
103 1 22.164984249999 0.984401920978 1.04689075 0 0 0
104 1 20.459984149999 3.937519089511 1.04689075 0 0 0
105 1 18.7550011 6.890665789511 1.04689075 0 0 0
106 1 17.050001 9.843842020978 1.04689075 0 0 0
107 1 25.574984449999 0.984401920978 1.04689075 0 0 0
108 1 23.8700014 3.937519089511 1.04689075 0 0 0
109 1 22.164984249999 6.890665789511 1.04689075 0 0 0
110 1 20.459984149999 9.843842020978 1.04689075 0 0 0
111 2 30.690018850001 25.593947910489 1.04689075 0 0 0
112 1 28.984984649999 0.984401920978 1.04689075 0 0 0
113 1 27.2800016 3.937519089511 1.04689075 0 0 0
114 1 25.574984449999 6.890665789511 1.04689075 0 0 0
115 1 23.8700014 9.843842020978 1.04689075 0 0 0
116 1 22.164984249999 12.796959189511 1.04689075 0 0 0
117 1 32.394984849999 0.984401920978 1.04689075 0 0 0
118 1 30.689984749999 3.937519089511 1.04689075 0 0 0
119 1 28.984984649999 6.890665789511 1.04689075 0 0 0
120 1 27.2800016 9.843842020978 1.04689075 0 0 0
121 1 25.574984449999 12.796959189511 1.04689075 0 0 0
122 2 17.050001 1.968774310489 1.04689075 0 0 0
123 2 20.4600012 1.968774310489 1.04689075 0 0 0
124 2 18.755018150001 4.921891479022 1.04689075 0 0 0
125 2 17.050001 7.875038179022 1.04689075 0 0 0
126 2 23.8700014 1.968774310489 1.04689075 0 0 0
127 2 22.165018350001 4.921891479022 1.04689075 0 0 0
128 2 20.4600012 7.875038179022 1.04689075 0 0 0
129 2 18.755018150001 10.828214410489 1.04689075 0 0 0
130 2 32.3950019 22.640801210489 1.04689075 0 0 0
131 2 27.280018650001 1.968774310489 1.04689075 0 0 0
132 2 25.5750015 4.921891479022 1.04689075 0 0 0
133 2 23.8700014 7.875038179022 1.04689075 0 0 0
134 2 22.165018350001 10.828214410489 1.04689075 0 0 0
135 2 20.4600012 13.781331579022 1.04689075 0 0 0
136 2 30.690018850001 1.968774310489 1.04689075 0 0 0
137 2 28.985018750001 4.921891479022 1.04689075 0 0 0
138 2 27.280018650001 7.875038179022 1.04689075 0 0 0
139 2 25.5750015 10.828214410489 1.04689075 0 0 0
140 2 23.8700014 13.781331579022 1.04689075 0 0 0
141 2 25.5750015 28.547065079022 1.04689075 0 0 0
142 1 20.459984149999 15.750135420978 1.04689075 0 0 0
143 1 18.7550011 18.703252589511 1.04689075 0 0 0
144 1 17.050001 21.656399289511 1.04689075 0 0 0
145 1 23.8700014 15.750135420978 1.04689075 0 0 0
146 1 22.164984249999 18.703252589511 1.04689075 0 0 0
147 1 20.459984149999 21.656399289511 1.04689075 0 0 0
148 1 18.7550011 24.609545989511 1.04689075 0 0 0
149 1 17.050001 27.562722220978 1.04689075 0 0 0
150 2 27.280018650001 25.593947910489 1.04689075 0 0 0
151 2 17.050001 19.687654510489 1.04689075 0 0 0
152 2 22.165018350001 16.734478279022 1.04689075 0 0 0
153 2 20.4600012 19.687654510489 1.04689075 0 0 0
154 2 18.755018150001 22.640801210489 1.04689075 0 0 0
155 2 17.050001 25.593947910489 1.04689075 0 0 0
156 1 32.394984849999 6.890665789511 1.04689075 0 0 0
157 1 30.689984749999 9.843842020978 1.04689075 0 0 0
158 1 28.984984649999 12.796959189511 1.04689075 0 0 0
159 1 32.394984849999 12.796959189511 1.04689075 0 0 0
160 2 32.3950019 4.921891479022 1.04689075 0 0 0
161 2 30.690018850001 7.875038179022 1.04689075 0 0 0
162 2 28.985018750001 10.828214410489 1.04689075 0 0 0
163 2 27.280018650001 13.781331579022 1.04689075 0 0 0
164 2 32.3950019 10.828214410489 1.04689075 0 0 0
165 2 30.690018850001 13.781331579022 1.04689075 0 0 0
166 1 27.2800016 15.750135420978 1.04689075 0 0 0
167 1 25.574984449999 18.703252589511 1.04689075 0 0 0
168 1 23.8700014 21.656399289511 1.04689075 0 0 0
169 1 22.164984249999 24.609545989511 1.04689075 0 0 0
170 1 20.459984149999 27.562722220978 1.04689075 0 0 0
171 1 30.689984749999 15.750135420978 1.04689075 0 0 0
172 1 28.984984649999 18.703252589511 1.04689075 0 0 0
173 1 27.2800016 21.656399289511 1.04689075 0 0 0
174 1 25.574984449999 24.609545989511 1.04689075 0 0 0
175 1 23.8700014 27.562722220978 1.04689075 0 0 0
176 1 32.394984849999 18.703252589511 1.04689075 0 0 0
177 1 30.689984749999 21.656399289511 1.04689075 0 0 0
178 1 28.984984649999 24.609545989511 1.04689075 0 0 0
179 1 27.2800016 27.562722220978 1.04689075 0 0 0
180 1 32.394984849999 24.609545989511 1.04689075 0 0 0
181 1 30.689984749999 27.562722220978 1.04689075 0 0 0
182 2 25.5750015 16.734478279022 1.04689075 0 0 0
183 2 23.8700014 19.687654510489 1.04689075 0 0 0
184 2 22.165018350001 22.640801210489 1.04689075 0 0 0
185 2 20.4600012 25.593947910489 1.04689075 0 0 0
186 2 18.755018150001 28.547065079022 1.04689075 0 0 0
187 2 28.985018750001 16.734478279022 1.04689075 0 0 0
188 2 27.280018650001 19.687654510489 1.04689075 0 0 0
189 2 25.5750015 22.640801210489 1.04689075 0 0 0
190 2 23.8700014 25.593947910489 1.04689075 0 0 0
191 2 22.165018350001 28.547065079022 1.04689075 0 0 0
192 2 32.3950019 16.734478279022 1.04689075 0 0 0
193 2 30.690018850001 19.687654510489 1.04689075 0 0 0
194 2 28.985018750001 22.640801210489 1.04689075 0 0 0
777 1 1.7050001 30.515868920978 1.04689075 0 0 0
778 1 0 33.468986089511 1.04689075 0 0 0
779 1 5.114983249999 30.515868920978 1.04689075 0 0 0
780 1 3.409983149999 33.468986089511 1.04689075 0 0 0
781 1 1.7050001 36.422132789511 1.04689075 0 0 0
782 1 0 39.375309020978 1.04689075 0 0 0
783 1 8.524983449999 30.515868920978 1.04689075 0 0 0
784 1 6.8200004 33.468986089511 1.04689075 0 0 0
785 1 5.114983249999 36.422132789511 1.04689075 0 0 0
786 1 3.409983149999 39.375309020978 1.04689075 0 0 0
787 1 1.7050001 42.328426189511 1.04689075 0 0 0
788 1 11.934983649999 30.515868920978 1.04689075 0 0 0
789 1 10.2300006 33.468986089511 1.04689075 0 0 0
790 1 8.524983449999 36.422132789511 1.04689075 0 0 0
791 1 6.8200004 39.375309020978 1.04689075 0 0 0
792 1 5.114983249999 42.328426189511 1.04689075 0 0 0
793 1 15.344983849999 30.515868920978 1.04689075 0 0 0
794 1 13.639983749999 33.468986089511 1.04689075 0 0 0
795 1 11.934983649999 36.422132789511 1.04689075 0 0 0
796 1 10.2300006 39.375309020978 1.04689075 0 0 0
797 1 8.524983449999 42.328426189511 1.04689075 0 0 0
798 2 0 31.500241310489 1.04689075 0 0 0
799 2 3.4100002 31.500241310489 1.04689075 0 0 0
800 2 1.705017150001 34.453358479022 1.04689075 0 0 0
801 2 0 37.406505179022 1.04689075 0 0 0
802 2 6.8200004 31.500241310489 1.04689075 0 0 0
803 2 5.115017350001 34.453358479022 1.04689075 0 0 0
804 2 3.4100002 37.406505179022 1.04689075 0 0 0
805 2 1.705017150001 40.359681410489 1.04689075 0 0 0
806 2 0 43.312798579022 1.04689075 0 0 0
807 2 10.230017650001 31.500241310489 1.04689075 0 0 0
808 2 8.5250005 34.453358479022 1.04689075 0 0 0
809 2 6.8200004 37.406505179022 1.04689075 0 0 0
810 2 5.115017350001 40.359681410489 1.04689075 0 0 0
811 2 3.4100002 43.312798579022 1.04689075 0 0 0
812 2 13.640017850001 31.500241310489 1.04689075 0 0 0
813 2 11.935017750001 34.453358479022 1.04689075 0 0 0
814 2 10.230017650001 37.406505179022 1.04689075 0 0 0
815 2 8.5250005 40.359681410489 1.04689075 0 0 0
816 2 6.8200004 43.312798579022 1.04689075 0 0 0
817 1 0 45.281602420978 1.04689075 0 0 0
818 1 3.409983149999 45.281602420978 1.04689075 0 0 0
819 1 1.7050001 48.234719589511 1.04689075 0 0 0
820 1 0 51.187866289511 1.04689075 0 0 0
821 1 6.8200004 45.281602420978 1.04689075 0 0 0
822 1 5.114983249999 48.234719589511 1.04689075 0 0 0
823 1 3.409983149999 51.187866289511 1.04689075 0 0 0
824 1 1.7050001 54.141012989511 1.04689075 0 0 0
825 1 0 57.094189220977995 1.04689075 0 0 0
826 2 1.705017150001 46.265945279022 1.04689075 0 0 0
827 2 0 49.219121510489 1.04689075 0 0 0
828 2 5.115017350001 46.265945279022 1.04689075 0 0 0
829 2 3.4100002 49.219121510489 1.04689075 0 0 0
830 2 1.705017150001 52.172268210488994 1.04689075 0 0 0
831 2 0 55.125414910489 1.04689075 0 0 0
832 1 15.344983849999 36.422132789511 1.04689075 0 0 0
833 1 13.639983749999 39.375309020978 1.04689075 0 0 0
834 1 11.934983649999 42.328426189511 1.04689075 0 0 0
835 2 32.3950019 58.078532079022 1.04689075 0 0 0
836 2 15.3450009 34.453358479022 1.04689075 0 0 0
837 2 13.640017850001 37.406505179022 1.04689075 0 0 0
838 2 11.935017750001 40.359681410489 1.04689075 0 0 0
839 2 10.230017650001 43.312798579022 1.04689075 0 0 0
840 2 15.3450009 40.359681410489 1.04689075 0 0 0
841 2 13.640017850001 43.312798579022 1.04689075 0 0 0
842 1 10.2300006 45.281602420978 1.04689075 0 0 0
843 1 8.524983449999 48.234719589511 1.04689075 0 0 0
844 1 6.8200004 51.187866289511 1.04689075 0 0 0
845 1 5.114983249999 54.141012989511 1.04689075 0 0 0
846 1 3.409983149999 57.094189220977995 1.04689075 0 0 0
847 1 13.639983749999 45.281602420978 1.04689075 0 0 0
848 1 11.934983649999 48.234719589511 1.04689075 0 0 0
849 1 10.2300006 51.187866289511 1.04689075 0 0 0
850 1 8.524983449999 54.141012989511 1.04689075 0 0 0
851 1 6.8200004 57.094189220977995 1.04689075 0 0 0
852 1 15.344983849999 48.234719589511 1.04689075 0 0 0
853 1 13.639983749999 51.187866289511 1.04689075 0 0 0
854 1 11.934983649999 54.141012989511 1.04689075 0 0 0
855 1 10.2300006 57.094189220977995 1.04689075 0 0 0
856 1 15.344983849999 54.141012989511 1.04689075 0 0 0
857 1 13.639983749999 57.094189220977995 1.04689075 0 0 0
858 2 8.5250005 46.265945279022 1.04689075 0 0 0
859 2 6.8200004 49.219121510489 1.04689075 0 0 0
860 2 5.115017350001 52.172268210488994 1.04689075 0 0 0
861 2 3.4100002 55.125414910489 1.04689075 0 0 0
862 2 1.705017150001 58.078532079022 1.04689075 0 0 0
863 2 11.935017750001 46.265945279022 1.04689075 0 0 0
864 2 10.230017650001 49.219121510489 1.04689075 0 0 0
865 2 8.5250005 52.172268210488994 1.04689075 0 0 0
866 2 6.8200004 55.125414910489 1.04689075 0 0 0
867 2 5.115017350001 58.078532079022 1.04689075 0 0 0
868 2 28.985018750001 58.078532079022 1.04689075 0 0 0
869 2 13.640017850001 49.219121510489 1.04689075 0 0 0
870 2 11.935017750001 52.172268210488994 1.04689075 0 0 0
871 2 10.230017650001 55.125414910489 1.04689075 0 0 0
872 2 8.5250005 58.078532079022 1.04689075 0 0 0
873 2 15.3450009 52.172268210488994 1.04689075 0 0 0
874 2 13.640017850001 55.125414910489 1.04689075 0 0 0
875 2 11.935017750001 58.078532079022 1.04689075 0 0 0
876 2 15.3450009 58.078532079022 1.04689075 0 0 0
877 1 18.7550011 30.515868920978 1.04689075 0 0 0
878 1 17.050001 33.468986089511 1.04689075 0 0 0
879 1 22.164984249999 30.515868920978 1.04689075 0 0 0
880 1 20.459984149999 33.468986089511 1.04689075 0 0 0
881 1 18.7550011 36.422132789511 1.04689075 0 0 0
882 1 17.050001 39.375309020978 1.04689075 0 0 0
883 1 25.574984449999 30.515868920978 1.04689075 0 0 0
884 1 23.8700014 33.468986089511 1.04689075 0 0 0
885 1 22.164984249999 36.422132789511 1.04689075 0 0 0
886 1 20.459984149999 39.375309020978 1.04689075 0 0 0
887 2 30.690018850001 55.125414910489 1.04689075 0 0 0
888 1 28.984984649999 30.515868920978 1.04689075 0 0 0
889 1 27.2800016 33.468986089511 1.04689075 0 0 0
890 1 25.574984449999 36.422132789511 1.04689075 0 0 0
891 1 23.8700014 39.375309020978 1.04689075 0 0 0
892 1 22.164984249999 42.328426189511 1.04689075 0 0 0
893 1 32.394984849999 30.515868920978 1.04689075 0 0 0
894 1 30.689984749999 33.468986089511 1.04689075 0 0 0
895 1 28.984984649999 36.422132789511 1.04689075 0 0 0
896 1 27.2800016 39.375309020978 1.04689075 0 0 0
897 1 25.574984449999 42.328426189511 1.04689075 0 0 0
898 2 17.050001 31.500241310489 1.04689075 0 0 0
899 2 20.4600012 31.500241310489 1.04689075 0 0 0
900 2 18.755018150001 34.453358479022 1.04689075 0 0 0
901 2 17.050001 37.406505179022 1.04689075 0 0 0
902 2 23.8700014 31.500241310489 1.04689075 0 0 0
903 2 22.165018350001 34.453358479022 1.04689075 0 0 0
904 2 20.4600012 37.406505179022 1.04689075 0 0 0
905 2 18.755018150001 40.359681410489 1.04689075 0 0 0
906 2 32.3950019 52.172268210488994 1.04689075 0 0 0
907 2 27.280018650001 31.500241310489 1.04689075 0 0 0
908 2 25.5750015 34.453358479022 1.04689075 0 0 0
909 2 23.8700014 37.406505179022 1.04689075 0 0 0
910 2 22.165018350001 40.359681410489 1.04689075 0 0 0
911 2 20.4600012 43.312798579022 1.04689075 0 0 0
912 2 30.690018850001 31.500241310489 1.04689075 0 0 0
913 2 28.985018750001 34.453358479022 1.04689075 0 0 0
914 2 27.280018650001 37.406505179022 1.04689075 0 0 0
915 2 25.5750015 40.359681410489 1.04689075 0 0 0
916 2 23.8700014 43.312798579022 1.04689075 0 0 0
917 2 25.5750015 58.078532079022 1.04689075 0 0 0
918 1 20.459984149999 45.281602420978 1.04689075 0 0 0
919 1 18.7550011 48.234719589511 1.04689075 0 0 0
920 1 17.050001 51.187866289511 1.04689075 0 0 0
921 1 23.8700014 45.281602420978 1.04689075 0 0 0
922 1 22.164984249999 48.234719589511 1.04689075 0 0 0
923 1 20.459984149999 51.187866289511 1.04689075 0 0 0
924 1 18.7550011 54.141012989511 1.04689075 0 0 0
925 1 17.050001 57.094189220977995 1.04689075 0 0 0
926 2 27.280018650001 55.125414910489 1.04689075 0 0 0
927 2 17.050001 49.219121510489 1.04689075 0 0 0
928 2 22.165018350001 46.265945279022 1.04689075 0 0 0
929 2 20.4600012 49.219121510489 1.04689075 0 0 0
930 2 18.755018150001 52.172268210488994 1.04689075 0 0 0
931 2 17.050001 55.125414910489 1.04689075 0 0 0
932 1 32.394984849999 36.422132789511 1.04689075 0 0 0
933 1 30.689984749999 39.375309020978 1.04689075 0 0 0
934 1 28.984984649999 42.328426189511 1.04689075 0 0 0
935 1 32.394984849999 42.328426189511 1.04689075 0 0 0
936 2 32.3950019 34.453358479022 1.04689075 0 0 0
937 2 30.690018850001 37.406505179022 1.04689075 0 0 0
938 2 28.985018750001 40.359681410489 1.04689075 0 0 0
939 2 27.280018650001 43.312798579022 1.04689075 0 0 0
940 2 32.3950019 40.359681410489 1.04689075 0 0 0
941 2 30.690018850001 43.312798579022 1.04689075 0 0 0
942 1 27.2800016 45.281602420978 1.04689075 0 0 0
943 1 25.574984449999 48.234719589511 1.04689075 0 0 0
944 1 23.8700014 51.187866289511 1.04689075 0 0 0
945 1 22.164984249999 54.141012989511 1.04689075 0 0 0
946 1 20.459984149999 57.094189220977995 1.04689075 0 0 0
947 1 30.689984749999 45.281602420978 1.04689075 0 0 0
948 1 28.984984649999 48.234719589511 1.04689075 0 0 0
949 1 27.2800016 51.187866289511 1.04689075 0 0 0
950 1 25.574984449999 54.141012989511 1.04689075 0 0 0
951 1 23.8700014 57.094189220977995 1.04689075 0 0 0
952 1 32.394984849999 48.234719589511 1.04689075 0 0 0
953 1 30.689984749999 51.187866289511 1.04689075 0 0 0
954 1 28.984984649999 54.141012989511 1.04689075 0 0 0
955 1 27.2800016 57.094189220977995 1.04689075 0 0 0
956 1 32.394984849999 54.141012989511 1.04689075 0 0 0
957 1 30.689984749999 57.094189220977995 1.04689075 0 0 0
958 2 25.5750015 46.265945279022 1.04689075 0 0 0
959 2 23.8700014 49.219121510489 1.04689075 0 0 0
960 2 22.165018350001 52.172268210488994 1.04689075 0 0 0
961 2 20.4600012 55.125414910489 1.04689075 0 0 0
962 2 18.755018150001 58.078532079022 1.04689075 0 0 0
963 2 28.985018750001 46.265945279022 1.04689075 0 0 0
964 2 27.280018650001 49.219121510489 1.04689075 0 0 0
965 2 25.5750015 52.172268210488994 1.04689075 0 0 0
966 2 23.8700014 55.125414910489 1.04689075 0 0 0
967 2 22.165018350001 58.078532079022 1.04689075 0 0 0
968 2 32.3950019 46.265945279022 1.04689075 0 0 0
969 2 30.690018850001 49.219121510489 1.04689075 0 0 0
970 2 28.985018750001 52.172268210488994 1.04689075 0 0 0
1553 1 1.7050001 60.047335920978 1.04689075 0 0 0
1554 1 0 63.000453089511 1.04689075 0 0 0
1555 1 5.114983249999 60.047335920978 1.04689075 0 0 0
1556 1 3.409983149999 63.000453089511 1.04689075 0 0 0
1557 1 1.7050001 65.953599789511 1.04689075 0 0 0
1558 1 0 68.906776020978 1.04689075 0 0 0
1559 1 8.524983449999 60.047335920978 1.04689075 0 0 0
1560 1 6.8200004 63.000453089511 1.04689075 0 0 0
1561 1 5.114983249999 65.953599789511 1.04689075 0 0 0
1562 1 3.409983149999 68.906776020978 1.04689075 0 0 0
1563 1 1.7050001 71.859893189511 1.04689075 0 0 0
1564 1 11.934983649999 60.047335920978 1.04689075 0 0 0
1565 1 10.2300006 63.000453089511 1.04689075 0 0 0
1566 1 8.524983449999 65.953599789511 1.04689075 0 0 0
1567 1 6.8200004 68.906776020978 1.04689075 0 0 0
1568 1 5.114983249999 71.859893189511 1.04689075 0 0 0
1569 1 15.344983849999 60.047335920978 1.04689075 0 0 0
1570 1 13.639983749999 63.000453089511 1.04689075 0 0 0
1571 1 11.934983649999 65.953599789511 1.04689075 0 0 0
1572 1 10.2300006 68.906776020978 1.04689075 0 0 0
1573 1 8.524983449999 71.859893189511 1.04689075 0 0 0
1574 2 0 61.031708310489 1.04689075 0 0 0
1575 2 3.4100002 61.031708310489 1.04689075 0 0 0
1576 2 1.705017150001 63.984825479022 1.04689075 0 0 0
1577 2 0 66.937972179022 1.04689075 0 0 0
1578 2 6.8200004 61.031708310489 1.04689075 0 0 0
1579 2 5.115017350001 63.984825479022 1.04689075 0 0 0
1580 2 3.4100002 66.937972179022 1.04689075 0 0 0
1581 2 1.705017150001 69.891148410489 1.04689075 0 0 0
1582 2 0 72.844265579022 1.04689075 0 0 0
1583 2 10.230017650001 61.031708310489 1.04689075 0 0 0
1584 2 8.5250005 63.984825479022 1.04689075 0 0 0
1585 2 6.8200004 66.937972179022 1.04689075 0 0 0
1586 2 5.115017350001 69.891148410489 1.04689075 0 0 0
1587 2 3.4100002 72.844265579022 1.04689075 0 0 0
1588 2 13.640017850001 61.031708310489 1.04689075 0 0 0
1589 2 11.935017750001 63.984825479022 1.04689075 0 0 0
1590 2 10.230017650001 66.937972179022 1.04689075 0 0 0
1591 2 8.5250005 69.891148410489 1.04689075 0 0 0
1592 2 6.8200004 72.844265579022 1.04689075 0 0 0
1593 1 0 74.813069420978 1.04689075 0 0 0
1594 1 3.409983149999 74.813069420978 1.04689075 0 0 0
1595 1 1.7050001 77.766186589511 1.04689075 0 0 0
1596 1 0 80.719333289511 1.04689075 0 0 0
1597 1 6.8200004 74.813069420978 1.04689075 0 0 0
1598 1 5.114983249999 77.766186589511 1.04689075 0 0 0
1599 1 3.409983149999 80.719333289511 1.04689075 0 0 0
1600 1 1.7050001 83.672479989511 1.04689075 0 0 0
1601 1 0 86.625656220978 1.04689075 0 0 0
1602 2 1.705017150001 75.797412279022 1.04689075 0 0 0
1603 2 0 78.750588510489 1.04689075 0 0 0
1604 2 5.115017350001 75.797412279022 1.04689075 0 0 0
1605 2 3.4100002 78.750588510489 1.04689075 0 0 0
1606 2 1.705017150001 81.703735210489 1.04689075 0 0 0
1607 2 0 84.656881910489 1.04689075 0 0 0
1608 1 15.344983849999 65.953599789511 1.04689075 0 0 0
1609 1 13.639983749999 68.906776020978 1.04689075 0 0 0
1610 1 11.934983649999 71.859893189511 1.04689075 0 0 0
1611 2 32.3950019 87.609999079022 1.04689075 0 0 0
1612 2 15.3450009 63.984825479022 1.04689075 0 0 0
1613 2 13.640017850001 66.937972179022 1.04689075 0 0 0
1614 2 11.935017750001 69.891148410489 1.04689075 0 0 0
1615 2 10.230017650001 72.844265579022 1.04689075 0 0 0
1616 2 15.3450009 69.891148410489 1.04689075 0 0 0
1617 2 13.640017850001 72.844265579022 1.04689075 0 0 0
1618 1 10.2300006 74.813069420978 1.04689075 0 0 0
1619 1 8.524983449999 77.766186589511 1.04689075 0 0 0
1620 1 6.8200004 80.719333289511 1.04689075 0 0 0
1621 1 5.114983249999 83.672479989511 1.04689075 0 0 0
1622 1 3.409983149999 86.625656220978 1.04689075 0 0 0
1623 1 13.639983749999 74.813069420978 1.04689075 0 0 0
1624 1 11.934983649999 77.766186589511 1.04689075 0 0 0
1625 1 10.2300006 80.719333289511 1.04689075 0 0 0
1626 1 8.524983449999 83.672479989511 1.04689075 0 0 0
1627 1 6.8200004 86.625656220978 1.04689075 0 0 0
1628 1 15.344983849999 77.766186589511 1.04689075 0 0 0
1629 1 13.639983749999 80.719333289511 1.04689075 0 0 0
1630 1 11.934983649999 83.672479989511 1.04689075 0 0 0
1631 1 10.2300006 86.625656220978 1.04689075 0 0 0
1632 1 15.344983849999 83.672479989511 1.04689075 0 0 0
1633 1 13.639983749999 86.625656220978 1.04689075 0 0 0
1634 2 8.5250005 75.797412279022 1.04689075 0 0 0
1635 2 6.8200004 78.750588510489 1.04689075 0 0 0
1636 2 5.115017350001 81.703735210489 1.04689075 0 0 0
1637 2 3.4100002 84.656881910489 1.04689075 0 0 0
1638 2 1.705017150001 87.609999079022 1.04689075 0 0 0
1639 2 11.935017750001 75.797412279022 1.04689075 0 0 0
1640 2 10.230017650001 78.750588510489 1.04689075 0 0 0
1641 2 8.5250005 81.703735210489 1.04689075 0 0 0
1642 2 6.8200004 84.656881910489 1.04689075 0 0 0
1643 2 5.115017350001 87.609999079022 1.04689075 0 0 0
1644 2 28.985018750001 87.609999079022 1.04689075 0 0 0
1645 2 13.640017850001 78.750588510489 1.04689075 0 0 0
1646 2 11.935017750001 81.703735210489 1.04689075 0 0 0
1647 2 10.230017650001 84.656881910489 1.04689075 0 0 0
1648 2 8.5250005 87.609999079022 1.04689075 0 0 0
1649 2 15.3450009 81.703735210489 1.04689075 0 0 0
1650 2 13.640017850001 84.656881910489 1.04689075 0 0 0
1651 2 11.935017750001 87.609999079022 1.04689075 0 0 0
1652 2 15.3450009 87.609999079022 1.04689075 0 0 0
1653 1 18.7550011 60.047335920978 1.04689075 0 0 0
1654 1 17.050001 63.000453089511 1.04689075 0 0 0
1655 1 22.164984249999 60.047335920978 1.04689075 0 0 0
1656 1 20.459984149999 63.000453089511 1.04689075 0 0 0
1657 1 18.7550011 65.953599789511 1.04689075 0 0 0
1658 1 17.050001 68.906776020978 1.04689075 0 0 0
1659 1 25.574984449999 60.047335920978 1.04689075 0 0 0
1660 1 23.8700014 63.000453089511 1.04689075 0 0 0
1661 1 22.164984249999 65.953599789511 1.04689075 0 0 0
1662 1 20.459984149999 68.906776020978 1.04689075 0 0 0
1663 2 30.690018850001 84.656881910489 1.04689075 0 0 0
1664 1 28.984984649999 60.047335920978 1.04689075 0 0 0
1665 1 27.2800016 63.000453089511 1.04689075 0 0 0
1666 1 25.574984449999 65.953599789511 1.04689075 0 0 0
1667 1 23.8700014 68.906776020978 1.04689075 0 0 0
1668 1 22.164984249999 71.859893189511 1.04689075 0 0 0
1669 1 32.394984849999 60.047335920978 1.04689075 0 0 0
1670 1 30.689984749999 63.000453089511 1.04689075 0 0 0
1671 1 28.984984649999 65.953599789511 1.04689075 0 0 0
1672 1 27.2800016 68.906776020978 1.04689075 0 0 0
1673 1 25.574984449999 71.859893189511 1.04689075 0 0 0
1674 2 17.050001 61.031708310489 1.04689075 0 0 0
1675 2 20.4600012 61.031708310489 1.04689075 0 0 0
1676 2 18.755018150001 63.984825479022 1.04689075 0 0 0
1677 2 17.050001 66.937972179022 1.04689075 0 0 0
1678 2 23.8700014 61.031708310489 1.04689075 0 0 0
1679 2 22.165018350001 63.984825479022 1.04689075 0 0 0
1680 2 20.4600012 66.937972179022 1.04689075 0 0 0
1681 2 18.755018150001 69.891148410489 1.04689075 0 0 0
1682 2 32.3950019 81.703735210489 1.04689075 0 0 0
1683 2 27.280018650001 61.031708310489 1.04689075 0 0 0
1684 2 25.5750015 63.984825479022 1.04689075 0 0 0
1685 2 23.8700014 66.937972179022 1.04689075 0 0 0
1686 2 22.165018350001 69.891148410489 1.04689075 0 0 0
1687 2 20.4600012 72.844265579022 1.04689075 0 0 0
1688 2 30.690018850001 61.031708310489 1.04689075 0 0 0
1689 2 28.985018750001 63.984825479022 1.04689075 0 0 0
1690 2 27.280018650001 66.937972179022 1.04689075 0 0 0
1691 2 25.5750015 69.891148410489 1.04689075 0 0 0
1692 2 23.8700014 72.844265579022 1.04689075 0 0 0
1693 2 25.5750015 87.609999079022 1.04689075 0 0 0
1694 1 20.459984149999 74.813069420978 1.04689075 0 0 0
1695 1 18.7550011 77.766186589511 1.04689075 0 0 0
1696 1 17.050001 80.719333289511 1.04689075 0 0 0
1697 1 23.8700014 74.813069420978 1.04689075 0 0 0
1698 1 22.164984249999 77.766186589511 1.04689075 0 0 0
1699 1 20.459984149999 80.719333289511 1.04689075 0 0 0
1700 1 18.7550011 83.672479989511 1.04689075 0 0 0
1701 1 17.050001 86.625656220978 1.04689075 0 0 0
1702 2 27.280018650001 84.656881910489 1.04689075 0 0 0
1703 2 17.050001 78.750588510489 1.04689075 0 0 0
1704 2 22.165018350001 75.797412279022 1.04689075 0 0 0
1705 2 20.4600012 78.750588510489 1.04689075 0 0 0
1706 2 18.755018150001 81.703735210489 1.04689075 0 0 0
1707 2 17.050001 84.656881910489 1.04689075 0 0 0
1708 1 32.394984849999 65.953599789511 1.04689075 0 0 0
1709 1 30.689984749999 68.906776020978 1.04689075 0 0 0
1710 1 28.984984649999 71.859893189511 1.04689075 0 0 0
1711 1 32.394984849999 71.859893189511 1.04689075 0 0 0
1712 2 32.3950019 63.984825479022 1.04689075 0 0 0
1713 2 30.690018850001 66.937972179022 1.04689075 0 0 0
1714 2 28.985018750001 69.891148410489 1.04689075 0 0 0
1715 2 27.280018650001 72.844265579022 1.04689075 0 0 0
1716 2 32.3950019 69.891148410489 1.04689075 0 0 0
1717 2 30.690018850001 72.844265579022 1.04689075 0 0 0
1718 1 27.2800016 74.813069420978 1.04689075 0 0 0
1719 1 25.574984449999 77.766186589511 1.04689075 0 0 0
1720 1 23.8700014 80.719333289511 1.04689075 0 0 0
1721 1 22.164984249999 83.672479989511 1.04689075 0 0 0
1722 1 20.459984149999 86.625656220978 1.04689075 0 0 0
1723 1 30.689984749999 74.813069420978 1.04689075 0 0 0
1724 1 28.984984649999 77.766186589511 1.04689075 0 0 0
1725 1 27.2800016 80.719333289511 1.04689075 0 0 0
1726 1 25.574984449999 83.672479989511 1.04689075 0 0 0
1727 1 23.8700014 86.625656220978 1.04689075 0 0 0
1728 1 32.394984849999 77.766186589511 1.04689075 0 0 0
1729 1 30.689984749999 80.719333289511 1.04689075 0 0 0
1730 1 28.984984649999 83.672479989511 1.04689075 0 0 0
1731 1 27.2800016 86.625656220978 1.04689075 0 0 0
1732 1 32.394984849999 83.672479989511 1.04689075 0 0 0
1733 1 30.689984749999 86.625656220978 1.04689075 0 0 0
1734 2 25.5750015 75.797412279022 1.04689075 0 0 0
1735 2 23.8700014 78.750588510489 1.04689075 0 0 0
1736 2 22.165018350001 81.703735210489 1.04689075 0 0 0
1737 2 20.4600012 84.656881910489 1.04689075 0 0 0
1738 2 18.755018150001 87.609999079022 1.04689075 0 0 0
1739 2 28.985018750001 75.797412279022 1.04689075 0 0 0
1740 2 27.280018650001 78.750588510489 1.04689075 0 0 0
1741 2 25.5750015 81.703735210489 1.04689075 0 0 0
1742 2 23.8700014 84.656881910489 1.04689075 0 0 0
1743 2 22.165018350001 87.609999079022 1.04689075 0 0 0
1744 2 32.3950019 75.797412279022 1.04689075 0 0 0
1745 2 30.690018850001 78.750588510489 1.04689075 0 0 0
1746 2 28.985018750001 81.703735210489 1.04689075 0 0 0
2329 1 1.7050001 89.578802920978 1.04689075 0 0 0
2330 1 0 92.531920089511 1.04689075 0 0 0
2331 1 5.114983249999 89.578802920978 1.04689075 0 0 0
2332 1 3.409983149999 92.531920089511 1.04689075 0 0 0
2333 1 1.7050001 95.48506678951101 1.04689075 0 0 0
2334 1 0 98.438243020978 1.04689075 0 0 0
2335 1 8.524983449999 89.578802920978 1.04689075 0 0 0
2336 1 6.8200004 92.531920089511 1.04689075 0 0 0
2337 1 5.114983249999 95.48506678951101 1.04689075 0 0 0
2338 1 3.409983149999 98.438243020978 1.04689075 0 0 0
2339 1 1.7050001 101.391360189511 1.04689075 0 0 0
2340 1 11.934983649999 89.578802920978 1.04689075 0 0 0
2341 1 10.2300006 92.531920089511 1.04689075 0 0 0
2342 1 8.524983449999 95.48506678951101 1.04689075 0 0 0
2343 1 6.8200004 98.438243020978 1.04689075 0 0 0
2344 1 5.114983249999 101.391360189511 1.04689075 0 0 0
2345 1 15.344983849999 89.578802920978 1.04689075 0 0 0
2346 1 13.639983749999 92.531920089511 1.04689075 0 0 0
2347 1 11.934983649999 95.48506678951101 1.04689075 0 0 0
2348 1 10.2300006 98.438243020978 1.04689075 0 0 0
2349 1 8.524983449999 101.391360189511 1.04689075 0 0 0
2350 2 0 90.563175310489 1.04689075 0 0 0
2351 2 3.4100002 90.563175310489 1.04689075 0 0 0
2352 2 1.705017150001 93.516292479022 1.04689075 0 0 0
2353 2 0 96.469439179022 1.04689075 0 0 0
2354 2 6.8200004 90.563175310489 1.04689075 0 0 0
2355 2 5.115017350001 93.516292479022 1.04689075 0 0 0
2356 2 3.4100002 96.469439179022 1.04689075 0 0 0
2357 2 1.705017150001 99.422615410489 1.04689075 0 0 0
2358 2 0 102.375732579022 1.04689075 0 0 0
2359 2 10.230017650001 90.563175310489 1.04689075 0 0 0
2360 2 8.5250005 93.516292479022 1.04689075 0 0 0
2361 2 6.8200004 96.469439179022 1.04689075 0 0 0
2362 2 5.115017350001 99.422615410489 1.04689075 0 0 0
2363 2 3.4100002 102.375732579022 1.04689075 0 0 0
2364 2 13.640017850001 90.563175310489 1.04689075 0 0 0
2365 2 11.935017750001 93.516292479022 1.04689075 0 0 0
2366 2 10.230017650001 96.469439179022 1.04689075 0 0 0
2367 2 8.5250005 99.422615410489 1.04689075 0 0 0
2368 2 6.8200004 102.375732579022 1.04689075 0 0 0
2369 1 0 104.344536420978 1.04689075 0 0 0
2370 1 3.409983149999 104.344536420978 1.04689075 0 0 0
2371 1 1.7050001 107.297653589511 1.04689075 0 0 0
2372 1 0 110.250800289511 1.04689075 0 0 0
2373 1 6.8200004 104.344536420978 1.04689075 0 0 0
2374 1 5.114983249999 107.297653589511 1.04689075 0 0 0
2375 1 3.409983149999 110.250800289511 1.04689075 0 0 0
2376 1 1.7050001 113.203946989511 1.04689075 0 0 0
2377 1 0 116.15712322097801 1.04689075 0 0 0
2378 2 1.705017150001 105.328879279022 1.04689075 0 0 0
2379 2 0 108.282055510489 1.04689075 0 0 0
2380 2 5.115017350001 105.328879279022 1.04689075 0 0 0
2381 2 3.4100002 108.282055510489 1.04689075 0 0 0
2382 2 1.705017150001 111.235202210489 1.04689075 0 0 0
2383 2 0 114.188348910489 1.04689075 0 0 0
2384 1 15.344983849999 95.48506678951101 1.04689075 0 0 0
2385 1 13.639983749999 98.438243020978 1.04689075 0 0 0
2386 1 11.934983649999 101.391360189511 1.04689075 0 0 0
2387 2 32.3950019 117.14146607902201 1.04689075 0 0 0
2388 2 15.3450009 93.516292479022 1.04689075 0 0 0
2389 2 13.640017850001 96.469439179022 1.04689075 0 0 0
2390 2 11.935017750001 99.422615410489 1.04689075 0 0 0
2391 2 10.230017650001 102.375732579022 1.04689075 0 0 0
2392 2 15.3450009 99.422615410489 1.04689075 0 0 0
2393 2 13.640017850001 102.375732579022 1.04689075 0 0 0
2394 1 10.2300006 104.344536420978 1.04689075 0 0 0
2395 1 8.524983449999 107.297653589511 1.04689075 0 0 0
2396 1 6.8200004 110.250800289511 1.04689075 0 0 0
2397 1 5.114983249999 113.203946989511 1.04689075 0 0 0
2398 1 3.409983149999 116.15712322097801 1.04689075 0 0 0
2399 1 13.639983749999 104.344536420978 1.04689075 0 0 0
2400 1 11.934983649999 107.297653589511 1.04689075 0 0 0
2401 1 10.2300006 110.250800289511 1.04689075 0 0 0
2402 1 8.524983449999 113.203946989511 1.04689075 0 0 0
2403 1 6.8200004 116.15712322097801 1.04689075 0 0 0
2404 1 15.344983849999 107.297653589511 1.04689075 0 0 0
2405 1 13.639983749999 110.250800289511 1.04689075 0 0 0
2406 1 11.934983649999 113.203946989511 1.04689075 0 0 0
2407 1 10.2300006 116.15712322097801 1.04689075 0 0 0
2408 1 15.344983849999 113.203946989511 1.04689075 0 0 0
2409 1 13.639983749999 116.15712322097801 1.04689075 0 0 0
2410 2 8.5250005 105.328879279022 1.04689075 0 0 0
2411 2 6.8200004 108.282055510489 1.04689075 0 0 0
2412 2 5.115017350001 111.235202210489 1.04689075 0 0 0
2413 2 3.4100002 114.188348910489 1.04689075 0 0 0
2414 2 1.705017150001 117.14146607902201 1.04689075 0 0 0
2415 2 11.935017750001 105.328879279022 1.04689075 0 0 0
2416 2 10.230017650001 108.282055510489 1.04689075 0 0 0
2417 2 8.5250005 111.235202210489 1.04689075 0 0 0
2418 2 6.8200004 114.188348910489 1.04689075 0 0 0
2419 2 5.115017350001 117.14146607902201 1.04689075 0 0 0
2420 2 28.985018750001 117.14146607902201 1.04689075 0 0 0
2421 2 13.640017850001 108.282055510489 1.04689075 0 0 0
2422 2 11.935017750001 111.235202210489 1.04689075 0 0 0
2423 2 10.230017650001 114.188348910489 1.04689075 0 0 0
2424 2 8.5250005 117.14146607902201 1.04689075 0 0 0
2425 2 15.3450009 111.235202210489 1.04689075 0 0 0
2426 2 13.640017850001 114.188348910489 1.04689075 0 0 0
2427 2 11.935017750001 117.14146607902201 1.04689075 0 0 0
2428 2 15.3450009 117.14146607902201 1.04689075 0 0 0
2429 1 18.7550011 89.578802920978 1.04689075 0 0 0
2430 1 17.050001 92.531920089511 1.04689075 0 0 0
2431 1 22.164984249999 89.578802920978 1.04689075 0 0 0
2432 1 20.459984149999 92.531920089511 1.04689075 0 0 0
2433 1 18.7550011 95.48506678951101 1.04689075 0 0 0
2434 1 17.050001 98.438243020978 1.04689075 0 0 0
2435 1 25.574984449999 89.578802920978 1.04689075 0 0 0
2436 1 23.8700014 92.531920089511 1.04689075 0 0 0
2437 1 22.164984249999 95.48506678951101 1.04689075 0 0 0
2438 1 20.459984149999 98.438243020978 1.04689075 0 0 0
2439 2 30.690018850001 114.188348910489 1.04689075 0 0 0
2440 1 28.984984649999 89.578802920978 1.04689075 0 0 0
2441 1 27.2800016 92.531920089511 1.04689075 0 0 0
2442 1 25.574984449999 95.48506678951101 1.04689075 0 0 0
2443 1 23.8700014 98.438243020978 1.04689075 0 0 0
2444 1 22.164984249999 101.391360189511 1.04689075 0 0 0
2445 1 32.394984849999 89.578802920978 1.04689075 0 0 0
2446 1 30.689984749999 92.531920089511 1.04689075 0 0 0
2447 1 28.984984649999 95.48506678951101 1.04689075 0 0 0
2448 1 27.2800016 98.438243020978 1.04689075 0 0 0
2449 1 25.574984449999 101.391360189511 1.04689075 0 0 0
2450 2 17.050001 90.563175310489 1.04689075 0 0 0
2451 2 20.4600012 90.563175310489 1.04689075 0 0 0
2452 2 18.755018150001 93.516292479022 1.04689075 0 0 0
2453 2 17.050001 96.469439179022 1.04689075 0 0 0
2454 2 23.8700014 90.563175310489 1.04689075 0 0 0
2455 2 22.165018350001 93.516292479022 1.04689075 0 0 0
2456 2 20.4600012 96.469439179022 1.04689075 0 0 0
2457 2 18.755018150001 99.422615410489 1.04689075 0 0 0
2458 2 32.3950019 111.235202210489 1.04689075 0 0 0
2459 2 27.280018650001 90.563175310489 1.04689075 0 0 0
2460 2 25.5750015 93.516292479022 1.04689075 0 0 0
2461 2 23.8700014 96.469439179022 1.04689075 0 0 0
2462 2 22.165018350001 99.422615410489 1.04689075 0 0 0
2463 2 20.4600012 102.375732579022 1.04689075 0 0 0
2464 2 30.690018850001 90.563175310489 1.04689075 0 0 0
2465 2 28.985018750001 93.516292479022 1.04689075 0 0 0
2466 2 27.280018650001 96.469439179022 1.04689075 0 0 0
2467 2 25.5750015 99.422615410489 1.04689075 0 0 0
2468 2 23.8700014 102.375732579022 1.04689075 0 0 0
2469 2 25.5750015 117.14146607902201 1.04689075 0 0 0
2470 1 20.459984149999 104.344536420978 1.04689075 0 0 0
2471 1 18.7550011 107.297653589511 1.04689075 0 0 0
2472 1 17.050001 110.250800289511 1.04689075 0 0 0
2473 1 23.8700014 104.344536420978 1.04689075 0 0 0
2474 1 22.164984249999 107.297653589511 1.04689075 0 0 0
2475 1 20.459984149999 110.250800289511 1.04689075 0 0 0
2476 1 18.7550011 113.203946989511 1.04689075 0 0 0
2477 1 17.050001 116.15712322097801 1.04689075 0 0 0
2478 2 27.280018650001 114.188348910489 1.04689075 0 0 0
2479 2 17.050001 108.282055510489 1.04689075 0 0 0
2480 2 22.165018350001 105.328879279022 1.04689075 0 0 0
2481 2 20.4600012 108.282055510489 1.04689075 0 0 0
2482 2 18.755018150001 111.235202210489 1.04689075 0 0 0
2483 2 17.050001 114.188348910489 1.04689075 0 0 0
2484 1 32.394984849999 95.48506678951101 1.04689075 0 0 0
2485 1 30.689984749999 98.438243020978 1.04689075 0 0 0
2486 1 28.984984649999 101.391360189511 1.04689075 0 0 0
2487 1 32.394984849999 101.391360189511 1.04689075 0 0 0
2488 2 32.3950019 93.516292479022 1.04689075 0 0 0
2489 2 30.690018850001 96.469439179022 1.04689075 0 0 0
2490 2 28.985018750001 99.422615410489 1.04689075 0 0 0
2491 2 27.280018650001 102.375732579022 1.04689075 0 0 0
2492 2 32.3950019 99.422615410489 1.04689075 0 0 0
2493 2 30.690018850001 102.375732579022 1.04689075 0 0 0
2494 1 27.2800016 104.344536420978 1.04689075 0 0 0
2495 1 25.574984449999 107.297653589511 1.04689075 0 0 0
2496 1 23.8700014 110.250800289511 1.04689075 0 0 0
2497 1 22.164984249999 113.203946989511 1.04689075 0 0 0
2498 1 20.459984149999 116.15712322097801 1.04689075 0 0 0
2499 1 30.689984749999 104.344536420978 1.04689075 0 0 0
2500 1 28.984984649999 107.297653589511 1.04689075 0 0 0
2501 1 27.2800016 110.250800289511 1.04689075 0 0 0
2502 1 25.574984449999 113.203946989511 1.04689075 0 0 0
2503 1 23.8700014 116.15712322097801 1.04689075 0 0 0
2504 1 32.394984849999 107.297653589511 1.04689075 0 0 0
2505 1 30.689984749999 110.250800289511 1.04689075 0 0 0
2506 1 28.984984649999 113.203946989511 1.04689075 0 0 0
2507 1 27.2800016 116.15712322097801 1.04689075 0 0 0
2508 1 32.394984849999 113.203946989511 1.04689075 0 0 0
2509 1 30.689984749999 116.15712322097801 1.04689075 0 0 0
2510 2 25.5750015 105.328879279022 1.04689075 0 0 0
2511 2 23.8700014 108.282055510489 1.04689075 0 0 0
2512 2 22.165018350001 111.235202210489 1.04689075 0 0 0
2513 2 20.4600012 114.188348910489 1.04689075 0 0 0
2514 2 18.755018150001 117.14146607902201 1.04689075 0 0 0
2515 2 28.985018750001 105.328879279022 1.04689075 0 0 0
2516 2 27.280018650001 108.282055510489 1.04689075 0 0 0
2517 2 25.5750015 111.235202210489 1.04689075 0 0 0
2518 2 23.8700014 114.188348910489 1.04689075 0 0 0
2519 2 22.165018350001 117.14146607902201 1.04689075 0 0 0
2520 2 32.3950019 105.328879279022 1.04689075 0 0 0
2521 2 30.690018850001 108.282055510489 1.04689075 0 0 0
2522 2 28.985018750001 111.235202210489 1.04689075 0 0 0
3105 1 1.7050001 119.110269920978 1.04689075 0 0 0
3106 1 0 122.063387089511 1.04689075 0 0 0
3107 1 5.114983249999 119.110269920978 1.04689075 0 0 0
3108 1 3.409983149999 122.063387089511 1.04689075 0 0 0
3109 1 1.7050001 125.016533789511 1.04689075 0 0 0
3110 1 0 127.969710020978 1.04689075 0 0 0
3111 1 8.524983449999 119.110269920978 1.04689075 0 0 0
3112 1 6.8200004 122.063387089511 1.04689075 0 0 0
3113 1 5.114983249999 125.016533789511 1.04689075 0 0 0
3114 1 3.409983149999 127.969710020978 1.04689075 0 0 0
3115 1 1.7050001 130.922827189511 1.04689075 0 0 0
3116 1 11.934983649999 119.110269920978 1.04689075 0 0 0
3117 1 10.2300006 122.063387089511 1.04689075 0 0 0
3118 1 8.524983449999 125.016533789511 1.04689075 0 0 0
3119 1 6.8200004 127.969710020978 1.04689075 0 0 0
3120 1 5.114983249999 130.922827189511 1.04689075 0 0 0
3121 1 15.344983849999 119.110269920978 1.04689075 0 0 0
3122 1 13.639983749999 122.063387089511 1.04689075 0 0 0
3123 1 11.934983649999 125.016533789511 1.04689075 0 0 0
3124 1 10.2300006 127.969710020978 1.04689075 0 0 0
3125 1 8.524983449999 130.922827189511 1.04689075 0 0 0
3126 2 0 120.094642310489 1.04689075 0 0 0
3127 2 3.4100002 120.094642310489 1.04689075 0 0 0
3128 2 1.705017150001 123.04775947902199 1.04689075 0 0 0
3129 2 0 126.000906179022 1.04689075 0 0 0
3130 2 6.8200004 120.094642310489 1.04689075 0 0 0
3131 2 5.115017350001 123.04775947902199 1.04689075 0 0 0
3132 2 3.4100002 126.000906179022 1.04689075 0 0 0
3133 2 1.705017150001 128.954082410489 1.04689075 0 0 0
3134 2 0 131.907199579022 1.04689075 0 0 0
3135 2 10.230017650001 120.094642310489 1.04689075 0 0 0
3136 2 8.5250005 123.04775947902199 1.04689075 0 0 0
3137 2 6.8200004 126.000906179022 1.04689075 0 0 0
3138 2 5.115017350001 128.954082410489 1.04689075 0 0 0
3139 2 3.4100002 131.907199579022 1.04689075 0 0 0
3140 2 13.640017850001 120.094642310489 1.04689075 0 0 0
3141 2 11.935017750001 123.04775947902199 1.04689075 0 0 0
3142 2 10.230017650001 126.000906179022 1.04689075 0 0 0
3143 2 8.5250005 128.954082410489 1.04689075 0 0 0
3144 2 6.8200004 131.907199579022 1.04689075 0 0 0
3145 1 0 133.876003420978 1.04689075 0 0 0
3146 1 3.409983149999 133.876003420978 1.04689075 0 0 0
3147 1 1.7050001 136.829120589511 1.04689075 0 0 0
3148 1 0 139.782267289511 1.04689075 0 0 0
3149 1 6.8200004 133.876003420978 1.04689075 0 0 0
3150 1 5.114983249999 136.829120589511 1.04689075 0 0 0
3151 1 3.409983149999 139.782267289511 1.04689075 0 0 0
3152 1 1.7050001 142.735413989511 1.04689075 0 0 0
3153 1 0 145.688590220978 1.04689075 0 0 0
3154 2 1.705017150001 134.860346279022 1.04689075 0 0 0
3155 2 0 137.813522510489 1.04689075 0 0 0
3156 2 5.115017350001 134.860346279022 1.04689075 0 0 0
3157 2 3.4100002 137.813522510489 1.04689075 0 0 0
3158 2 1.705017150001 140.766669210489 1.04689075 0 0 0
3159 2 0 143.719815910489 1.04689075 0 0 0
3160 1 15.344983849999 125.016533789511 1.04689075 0 0 0
3161 1 13.639983749999 127.969710020978 1.04689075 0 0 0
3162 1 11.934983649999 130.922827189511 1.04689075 0 0 0
3163 2 32.3950019 146.672933079022 1.04689075 0 0 0
3164 2 15.3450009 123.04775947902199 1.04689075 0 0 0
3165 2 13.640017850001 126.000906179022 1.04689075 0 0 0
3166 2 11.935017750001 128.954082410489 1.04689075 0 0 0
3167 2 10.230017650001 131.907199579022 1.04689075 0 0 0
3168 2 15.3450009 128.954082410489 1.04689075 0 0 0
3169 2 13.640017850001 131.907199579022 1.04689075 0 0 0
3170 1 10.2300006 133.876003420978 1.04689075 0 0 0
3171 1 8.524983449999 136.829120589511 1.04689075 0 0 0
3172 1 6.8200004 139.782267289511 1.04689075 0 0 0
3173 1 5.114983249999 142.735413989511 1.04689075 0 0 0
3174 1 3.409983149999 145.688590220978 1.04689075 0 0 0
3175 1 13.639983749999 133.876003420978 1.04689075 0 0 0
3176 1 11.934983649999 136.829120589511 1.04689075 0 0 0
3177 1 10.2300006 139.782267289511 1.04689075 0 0 0
3178 1 8.524983449999 142.735413989511 1.04689075 0 0 0
3179 1 6.8200004 145.688590220978 1.04689075 0 0 0
3180 1 15.344983849999 136.829120589511 1.04689075 0 0 0
3181 1 13.639983749999 139.782267289511 1.04689075 0 0 0
3182 1 11.934983649999 142.735413989511 1.04689075 0 0 0
3183 1 10.2300006 145.688590220978 1.04689075 0 0 0
3184 1 15.344983849999 142.735413989511 1.04689075 0 0 0
3185 1 13.639983749999 145.688590220978 1.04689075 0 0 0
3186 2 8.5250005 134.860346279022 1.04689075 0 0 0
3187 2 6.8200004 137.813522510489 1.04689075 0 0 0
3188 2 5.115017350001 140.766669210489 1.04689075 0 0 0
3189 2 3.4100002 143.719815910489 1.04689075 0 0 0
3190 2 1.705017150001 146.672933079022 1.04689075 0 0 0
3191 2 11.935017750001 134.860346279022 1.04689075 0 0 0
3192 2 10.230017650001 137.813522510489 1.04689075 0 0 0
3193 2 8.5250005 140.766669210489 1.04689075 0 0 0
3194 2 6.8200004 143.719815910489 1.04689075 0 0 0
3195 2 5.115017350001 146.672933079022 1.04689075 0 0 0
3196 2 28.985018750001 146.672933079022 1.04689075 0 0 0
3197 2 13.640017850001 137.813522510489 1.04689075 0 0 0
3198 2 11.935017750001 140.766669210489 1.04689075 0 0 0
3199 2 10.230017650001 143.719815910489 1.04689075 0 0 0
3200 2 8.5250005 146.672933079022 1.04689075 0 0 0
3201 2 15.3450009 140.766669210489 1.04689075 0 0 0
3202 2 13.640017850001 143.719815910489 1.04689075 0 0 0
3203 2 11.935017750001 146.672933079022 1.04689075 0 0 0
3204 2 15.3450009 146.672933079022 1.04689075 0 0 0
3205 1 18.7550011 119.110269920978 1.04689075 0 0 0
3206 1 17.050001 122.063387089511 1.04689075 0 0 0
3207 1 22.164984249999 119.110269920978 1.04689075 0 0 0
3208 1 20.459984149999 122.063387089511 1.04689075 0 0 0
3209 1 18.7550011 125.016533789511 1.04689075 0 0 0
3210 1 17.050001 127.969710020978 1.04689075 0 0 0
3211 1 25.574984449999 119.110269920978 1.04689075 0 0 0
3212 1 23.8700014 122.063387089511 1.04689075 0 0 0
3213 1 22.164984249999 125.016533789511 1.04689075 0 0 0
3214 1 20.459984149999 127.969710020978 1.04689075 0 0 0
3215 2 30.690018850001 143.719815910489 1.04689075 0 0 0
3216 1 28.984984649999 119.110269920978 1.04689075 0 0 0
3217 1 27.2800016 122.063387089511 1.04689075 0 0 0
3218 1 25.574984449999 125.016533789511 1.04689075 0 0 0
3219 1 23.8700014 127.969710020978 1.04689075 0 0 0
3220 1 22.164984249999 130.922827189511 1.04689075 0 0 0
3221 1 32.394984849999 119.110269920978 1.04689075 0 0 0
3222 1 30.689984749999 122.063387089511 1.04689075 0 0 0
3223 1 28.984984649999 125.016533789511 1.04689075 0 0 0
3224 1 27.2800016 127.969710020978 1.04689075 0 0 0
3225 1 25.574984449999 130.922827189511 1.04689075 0 0 0
3226 2 17.050001 120.094642310489 1.04689075 0 0 0
3227 2 20.4600012 120.094642310489 1.04689075 0 0 0
3228 2 18.755018150001 123.04775947902199 1.04689075 0 0 0
3229 2 17.050001 126.000906179022 1.04689075 0 0 0
3230 2 23.8700014 120.094642310489 1.04689075 0 0 0
3231 2 22.165018350001 123.04775947902199 1.04689075 0 0 0
3232 2 20.4600012 126.000906179022 1.04689075 0 0 0
3233 2 18.755018150001 128.954082410489 1.04689075 0 0 0
3234 2 32.3950019 140.766669210489 1.04689075 0 0 0
3235 2 27.280018650001 120.094642310489 1.04689075 0 0 0
3236 2 25.5750015 123.04775947902199 1.04689075 0 0 0
3237 2 23.8700014 126.000906179022 1.04689075 0 0 0
3238 2 22.165018350001 128.954082410489 1.04689075 0 0 0
3239 2 20.4600012 131.907199579022 1.04689075 0 0 0
3240 2 30.690018850001 120.094642310489 1.04689075 0 0 0
3241 2 28.985018750001 123.04775947902199 1.04689075 0 0 0
3242 2 27.280018650001 126.000906179022 1.04689075 0 0 0
3243 2 25.5750015 128.954082410489 1.04689075 0 0 0
3244 2 23.8700014 131.907199579022 1.04689075 0 0 0
3245 2 25.5750015 146.672933079022 1.04689075 0 0 0
3246 1 20.459984149999 133.876003420978 1.04689075 0 0 0
3247 1 18.7550011 136.829120589511 1.04689075 0 0 0
3248 1 17.050001 139.782267289511 1.04689075 0 0 0
3249 1 23.8700014 133.876003420978 1.04689075 0 0 0
3250 1 22.164984249999 136.829120589511 1.04689075 0 0 0
3251 1 20.459984149999 139.782267289511 1.04689075 0 0 0
3252 1 18.7550011 142.735413989511 1.04689075 0 0 0
3253 1 17.050001 145.688590220978 1.04689075 0 0 0
3254 2 27.280018650001 143.719815910489 1.04689075 0 0 0
3255 2 17.050001 137.813522510489 1.04689075 0 0 0
3256 2 22.165018350001 134.860346279022 1.04689075 0 0 0
3257 2 20.4600012 137.813522510489 1.04689075 0 0 0
3258 2 18.755018150001 140.766669210489 1.04689075 0 0 0
3259 2 17.050001 143.719815910489 1.04689075 0 0 0
3260 1 32.394984849999 125.016533789511 1.04689075 0 0 0
3261 1 30.689984749999 127.969710020978 1.04689075 0 0 0
3262 1 28.984984649999 130.922827189511 1.04689075 0 0 0
3263 1 32.394984849999 130.922827189511 1.04689075 0 0 0
3264 2 32.3950019 123.04775947902199 1.04689075 0 0 0
3265 2 30.690018850001 126.000906179022 1.04689075 0 0 0
3266 2 28.985018750001 128.954082410489 1.04689075 0 0 0
3267 2 27.280018650001 131.907199579022 1.04689075 0 0 0
3268 2 32.3950019 128.954082410489 1.04689075 0 0 0
3269 2 30.690018850001 131.907199579022 1.04689075 0 0 0
3270 1 27.2800016 133.876003420978 1.04689075 0 0 0
3271 1 25.574984449999 136.829120589511 1.04689075 0 0 0
3272 1 23.8700014 139.782267289511 1.04689075 0 0 0
3273 1 22.164984249999 142.735413989511 1.04689075 0 0 0
3274 1 20.459984149999 145.688590220978 1.04689075 0 0 0
3275 1 30.689984749999 133.876003420978 1.04689075 0 0 0
3276 1 28.984984649999 136.829120589511 1.04689075 0 0 0
3277 1 27.2800016 139.782267289511 1.04689075 0 0 0
3278 1 25.574984449999 142.735413989511 1.04689075 0 0 0
3279 1 23.8700014 145.688590220978 1.04689075 0 0 0
3280 1 32.394984849999 136.829120589511 1.04689075 0 0 0
3281 1 30.689984749999 139.782267289511 1.04689075 0 0 0
3282 1 28.984984649999 142.735413989511 1.04689075 0 0 0
3283 1 27.2800016 145.688590220978 1.04689075 0 0 0
3284 1 32.394984849999 142.735413989511 1.04689075 0 0 0
3285 1 30.689984749999 145.688590220978 1.04689075 0 0 0
3286 2 25.5750015 134.860346279022 1.04689075 0 0 0
3287 2 23.8700014 137.813522510489 1.04689075 0 0 0
3288 2 22.165018350001 140.766669210489 1.04689075 0 0 0
3289 2 20.4600012 143.719815910489 1.04689075 0 0 0
3290 2 18.755018150001 146.672933079022 1.04689075 0 0 0
3291 2 28.985018750001 134.860346279022 1.04689075 0 0 0
3292 2 27.280018650001 137.813522510489 1.04689075 0 0 0
3293 2 25.5750015 140.766669210489 1.04689075 0 0 0
3294 2 23.8700014 143.719815910489 1.04689075 0 0 0
3295 2 22.165018350001 146.672933079022 1.04689075 0 0 0
3296 2 32.3950019 134.860346279022 1.04689075 0 0 0
3297 2 30.690018850001 137.813522510489 1.04689075 0 0 0
3298 2 28.985018750001 140.766669210489 1.04689075 0 0 0
3881 1 1.7050001 148.641736920978 1.04689075 0 0 0
3882 1 0 151.594854089511 1.04689075 0 0 0
3883 1 5.114983249999 148.641736920978 1.04689075 0 0 0
3884 1 3.409983149999 151.594854089511 1.04689075 0 0 0
3885 1 1.7050001 154.54800078951098 1.04689075 0 0 0
3886 1 0 157.501177020978 1.04689075 0 0 0
3887 1 8.524983449999 148.641736920978 1.04689075 0 0 0
3888 1 6.8200004 151.594854089511 1.04689075 0 0 0
3889 1 5.114983249999 154.54800078951098 1.04689075 0 0 0
3890 1 3.409983149999 157.501177020978 1.04689075 0 0 0
3891 1 1.7050001 160.454294189511 1.04689075 0 0 0
3892 1 11.934983649999 148.641736920978 1.04689075 0 0 0
3893 1 10.2300006 151.594854089511 1.04689075 0 0 0
3894 1 8.524983449999 154.54800078951098 1.04689075 0 0 0
3895 1 6.8200004 157.501177020978 1.04689075 0 0 0
3896 1 5.114983249999 160.454294189511 1.04689075 0 0 0
3897 1 15.344983849999 148.641736920978 1.04689075 0 0 0
3898 1 13.639983749999 151.594854089511 1.04689075 0 0 0
3899 1 11.934983649999 154.54800078951098 1.04689075 0 0 0
3900 1 10.2300006 157.501177020978 1.04689075 0 0 0
3901 1 8.524983449999 160.454294189511 1.04689075 0 0 0
3902 2 0 149.626109310489 1.04689075 0 0 0
3903 2 3.4100002 149.626109310489 1.04689075 0 0 0
3904 2 1.705017150001 152.579226479022 1.04689075 0 0 0
3905 2 0 155.532373179022 1.04689075 0 0 0
3906 2 6.8200004 149.626109310489 1.04689075 0 0 0
3907 2 5.115017350001 152.579226479022 1.04689075 0 0 0
3908 2 3.4100002 155.532373179022 1.04689075 0 0 0
3909 2 1.705017150001 158.485549410489 1.04689075 0 0 0
3910 2 0 161.438666579022 1.04689075 0 0 0
3911 2 10.230017650001 149.626109310489 1.04689075 0 0 0
3912 2 8.5250005 152.579226479022 1.04689075 0 0 0
3913 2 6.8200004 155.532373179022 1.04689075 0 0 0
3914 2 5.115017350001 158.485549410489 1.04689075 0 0 0
3915 2 3.4100002 161.438666579022 1.04689075 0 0 0
3916 2 13.640017850001 149.626109310489 1.04689075 0 0 0
3917 2 11.935017750001 152.579226479022 1.04689075 0 0 0
3918 2 10.230017650001 155.532373179022 1.04689075 0 0 0
3919 2 8.5250005 158.485549410489 1.04689075 0 0 0
3920 2 6.8200004 161.438666579022 1.04689075 0 0 0
3921 1 0 163.407470420978 1.04689075 0 0 0
3922 1 3.409983149999 163.407470420978 1.04689075 0 0 0
3923 1 1.7050001 166.360587589511 1.04689075 0 0 0
3924 1 0 169.313734289511 1.04689075 0 0 0
3925 1 6.8200004 163.407470420978 1.04689075 0 0 0
3926 1 5.114983249999 166.360587589511 1.04689075 0 0 0
3927 1 3.409983149999 169.313734289511 1.04689075 0 0 0
3928 1 1.7050001 172.26688098951098 1.04689075 0 0 0
3929 1 0 175.220057220978 1.04689075 0 0 0
3930 2 1.705017150001 164.391813279022 1.04689075 0 0 0
3931 2 0 167.344989510489 1.04689075 0 0 0
3932 2 5.115017350001 164.391813279022 1.04689075 0 0 0
3933 2 3.4100002 167.344989510489 1.04689075 0 0 0
3934 2 1.705017150001 170.298136210489 1.04689075 0 0 0
3935 2 0 173.25128291048898 1.04689075 0 0 0
3936 1 15.344983849999 154.54800078951098 1.04689075 0 0 0
3937 1 13.639983749999 157.501177020978 1.04689075 0 0 0
3938 1 11.934983649999 160.454294189511 1.04689075 0 0 0
3939 2 32.3950019 176.20440007902198 1.04689075 0 0 0
3940 2 15.3450009 152.579226479022 1.04689075 0 0 0
3941 2 13.640017850001 155.532373179022 1.04689075 0 0 0
3942 2 11.935017750001 158.485549410489 1.04689075 0 0 0
3943 2 10.230017650001 161.438666579022 1.04689075 0 0 0
3944 2 15.3450009 158.485549410489 1.04689075 0 0 0
3945 2 13.640017850001 161.438666579022 1.04689075 0 0 0
3946 1 10.2300006 163.407470420978 1.04689075 0 0 0
3947 1 8.524983449999 166.360587589511 1.04689075 0 0 0
3948 1 6.8200004 169.313734289511 1.04689075 0 0 0
3949 1 5.114983249999 172.26688098951098 1.04689075 0 0 0
3950 1 3.409983149999 175.220057220978 1.04689075 0 0 0
3951 1 13.639983749999 163.407470420978 1.04689075 0 0 0
3952 1 11.934983649999 166.360587589511 1.04689075 0 0 0
3953 1 10.2300006 169.313734289511 1.04689075 0 0 0
3954 1 8.524983449999 172.26688098951098 1.04689075 0 0 0
3955 1 6.8200004 175.220057220978 1.04689075 0 0 0
3956 1 15.344983849999 166.360587589511 1.04689075 0 0 0
3957 1 13.639983749999 169.313734289511 1.04689075 0 0 0
3958 1 11.934983649999 172.26688098951098 1.04689075 0 0 0
3959 1 10.2300006 175.220057220978 1.04689075 0 0 0
3960 1 15.344983849999 172.26688098951098 1.04689075 0 0 0
3961 1 13.639983749999 175.220057220978 1.04689075 0 0 0
3962 2 8.5250005 164.391813279022 1.04689075 0 0 0
3963 2 6.8200004 167.344989510489 1.04689075 0 0 0
3964 2 5.115017350001 170.298136210489 1.04689075 0 0 0
3965 2 3.4100002 173.25128291048898 1.04689075 0 0 0
3966 2 1.705017150001 176.20440007902198 1.04689075 0 0 0
3967 2 11.935017750001 164.391813279022 1.04689075 0 0 0
3968 2 10.230017650001 167.344989510489 1.04689075 0 0 0
3969 2 8.5250005 170.298136210489 1.04689075 0 0 0
3970 2 6.8200004 173.25128291048898 1.04689075 0 0 0
3971 2 5.115017350001 176.20440007902198 1.04689075 0 0 0
3972 2 28.985018750001 176.20440007902198 1.04689075 0 0 0
3973 2 13.640017850001 167.344989510489 1.04689075 0 0 0
3974 2 11.935017750001 170.298136210489 1.04689075 0 0 0
3975 2 10.230017650001 173.25128291048898 1.04689075 0 0 0
3976 2 8.5250005 176.20440007902198 1.04689075 0 0 0
3977 2 15.3450009 170.298136210489 1.04689075 0 0 0
3978 2 13.640017850001 173.25128291048898 1.04689075 0 0 0
3979 2 11.935017750001 176.20440007902198 1.04689075 0 0 0
3980 2 15.3450009 176.20440007902198 1.04689075 0 0 0
3981 1 18.7550011 148.641736920978 1.04689075 0 0 0
3982 1 17.050001 151.594854089511 1.04689075 0 0 0
3983 1 22.164984249999 148.641736920978 1.04689075 0 0 0
3984 1 20.459984149999 151.594854089511 1.04689075 0 0 0
3985 1 18.7550011 154.54800078951098 1.04689075 0 0 0
3986 1 17.050001 157.501177020978 1.04689075 0 0 0
3987 1 25.574984449999 148.641736920978 1.04689075 0 0 0
3988 1 23.8700014 151.594854089511 1.04689075 0 0 0
3989 1 22.164984249999 154.54800078951098 1.04689075 0 0 0
3990 1 20.459984149999 157.501177020978 1.04689075 0 0 0
3991 2 30.690018850001 173.25128291048898 1.04689075 0 0 0
3992 1 28.984984649999 148.641736920978 1.04689075 0 0 0
3993 1 27.2800016 151.594854089511 1.04689075 0 0 0
3994 1 25.574984449999 154.54800078951098 1.04689075 0 0 0
3995 1 23.8700014 157.501177020978 1.04689075 0 0 0
3996 1 22.164984249999 160.454294189511 1.04689075 0 0 0
3997 1 32.394984849999 148.641736920978 1.04689075 0 0 0
3998 1 30.689984749999 151.594854089511 1.04689075 0 0 0
3999 1 28.984984649999 154.54800078951098 1.04689075 0 0 0
4000 1 27.2800016 157.501177020978 1.04689075 0 0 0
4001 1 25.574984449999 160.454294189511 1.04689075 0 0 0
4002 2 17.050001 149.626109310489 1.04689075 0 0 0
4003 2 20.4600012 149.626109310489 1.04689075 0 0 0
4004 2 18.755018150001 152.579226479022 1.04689075 0 0 0
4005 2 17.050001 155.532373179022 1.04689075 0 0 0
4006 2 23.8700014 149.626109310489 1.04689075 0 0 0
4007 2 22.165018350001 152.579226479022 1.04689075 0 0 0
4008 2 20.4600012 155.532373179022 1.04689075 0 0 0
4009 2 18.755018150001 158.485549410489 1.04689075 0 0 0
4010 2 32.3950019 170.298136210489 1.04689075 0 0 0
4011 2 27.280018650001 149.626109310489 1.04689075 0 0 0
4012 2 25.5750015 152.579226479022 1.04689075 0 0 0
4013 2 23.8700014 155.532373179022 1.04689075 0 0 0
4014 2 22.165018350001 158.485549410489 1.04689075 0 0 0
4015 2 20.4600012 161.438666579022 1.04689075 0 0 0
4016 2 30.690018850001 149.626109310489 1.04689075 0 0 0
4017 2 28.985018750001 152.579226479022 1.04689075 0 0 0
4018 2 27.280018650001 155.532373179022 1.04689075 0 0 0
4019 2 25.5750015 158.485549410489 1.04689075 0 0 0
4020 2 23.8700014 161.438666579022 1.04689075 0 0 0
4021 2 25.5750015 176.20440007902198 1.04689075 0 0 0
4022 1 20.459984149999 163.407470420978 1.04689075 0 0 0
4023 1 18.7550011 166.360587589511 1.04689075 0 0 0
4024 1 17.050001 169.313734289511 1.04689075 0 0 0
4025 1 23.8700014 163.407470420978 1.04689075 0 0 0
4026 1 22.164984249999 166.360587589511 1.04689075 0 0 0
4027 1 20.459984149999 169.313734289511 1.04689075 0 0 0
4028 1 18.7550011 172.26688098951098 1.04689075 0 0 0
4029 1 17.050001 175.220057220978 1.04689075 0 0 0
4030 2 27.280018650001 173.25128291048898 1.04689075 0 0 0
4031 2 17.050001 167.344989510489 1.04689075 0 0 0
4032 2 22.165018350001 164.391813279022 1.04689075 0 0 0
4033 2 20.4600012 167.344989510489 1.04689075 0 0 0
4034 2 18.755018150001 170.298136210489 1.04689075 0 0 0
4035 2 17.050001 173.25128291048898 1.04689075 0 0 0
4036 1 32.394984849999 154.54800078951098 1.04689075 0 0 0
4037 1 30.689984749999 157.501177020978 1.04689075 0 0 0
4038 1 28.984984649999 160.454294189511 1.04689075 0 0 0
4039 1 32.394984849999 160.454294189511 1.04689075 0 0 0
4040 2 32.3950019 152.579226479022 1.04689075 0 0 0
4041 2 30.690018850001 155.532373179022 1.04689075 0 0 0
4042 2 28.985018750001 158.485549410489 1.04689075 0 0 0
4043 2 27.280018650001 161.438666579022 1.04689075 0 0 0
4044 2 32.3950019 158.485549410489 1.04689075 0 0 0
4045 2 30.690018850001 161.438666579022 1.04689075 0 0 0
4046 1 27.2800016 163.407470420978 1.04689075 0 0 0
4047 1 25.574984449999 166.360587589511 1.04689075 0 0 0
4048 1 23.8700014 169.313734289511 1.04689075 0 0 0
4049 1 22.164984249999 172.26688098951098 1.04689075 0 0 0
4050 1 20.459984149999 175.220057220978 1.04689075 0 0 0
4051 1 30.689984749999 163.407470420978 1.04689075 0 0 0
4052 1 28.984984649999 166.360587589511 1.04689075 0 0 0
4053 1 27.2800016 169.313734289511 1.04689075 0 0 0
4054 1 25.574984449999 172.26688098951098 1.04689075 0 0 0
4055 1 23.8700014 175.220057220978 1.04689075 0 0 0
4056 1 32.394984849999 166.360587589511 1.04689075 0 0 0
4057 1 30.689984749999 169.313734289511 1.04689075 0 0 0
4058 1 28.984984649999 172.26688098951098 1.04689075 0 0 0
4059 1 27.2800016 175.220057220978 1.04689075 0 0 0
4060 1 32.394984849999 172.26688098951098 1.04689075 0 0 0
4061 1 30.689984749999 175.220057220978 1.04689075 0 0 0
4062 2 25.5750015 164.391813279022 1.04689075 0 0 0
4063 2 23.8700014 167.344989510489 1.04689075 0 0 0
4064 2 22.165018350001 170.298136210489 1.04689075 0 0 0
4065 2 20.4600012 173.25128291048898 1.04689075 0 0 0
4066 2 18.755018150001 176.20440007902198 1.04689075 0 0 0
4067 2 28.985018750001 164.391813279022 1.04689075 0 0 0
4068 2 27.280018650001 167.344989510489 1.04689075 0 0 0
4069 2 25.5750015 170.298136210489 1.04689075 0 0 0
4070 2 23.8700014 173.25128291048898 1.04689075 0 0 0
4071 2 22.165018350001 176.20440007902198 1.04689075 0 0 0
4072 2 32.3950019 164.391813279022 1.04689075 0 0 0
4073 2 30.690018850001 167.344989510489 1.04689075 0 0 0
4074 2 28.985018750001 170.298136210489 1.04689075 0 0 0
4657 1 1.7050001 178.173203920978 1.04689075 0 0 0
4658 1 0 181.126321089511 1.04689075 0 0 0
4659 1 5.114983249999 178.173203920978 1.04689075 0 0 0
4660 1 3.409983149999 181.126321089511 1.04689075 0 0 0
4661 1 1.7050001 184.079467789511 1.04689075 0 0 0
4662 1 0 187.032644020978 1.04689075 0 0 0
4663 1 8.524983449999 178.173203920978 1.04689075 0 0 0
4664 1 6.8200004 181.126321089511 1.04689075 0 0 0
4665 1 5.114983249999 184.079467789511 1.04689075 0 0 0
4666 1 3.409983149999 187.032644020978 1.04689075 0 0 0
4667 1 1.7050001 189.985761189511 1.04689075 0 0 0
4668 1 11.934983649999 178.173203920978 1.04689075 0 0 0
4669 1 10.2300006 181.126321089511 1.04689075 0 0 0
4670 1 8.524983449999 184.079467789511 1.04689075 0 0 0
4671 1 6.8200004 187.032644020978 1.04689075 0 0 0
4672 1 5.114983249999 189.985761189511 1.04689075 0 0 0
4673 1 15.344983849999 178.173203920978 1.04689075 0 0 0
4674 1 13.639983749999 181.126321089511 1.04689075 0 0 0
4675 1 11.934983649999 184.079467789511 1.04689075 0 0 0
4676 1 10.2300006 187.032644020978 1.04689075 0 0 0
4677 1 8.524983449999 189.985761189511 1.04689075 0 0 0
4678 2 0 179.15757631048902 1.04689075 0 0 0
4679 2 3.4100002 179.15757631048902 1.04689075 0 0 0
4680 2 1.705017150001 182.11069347902202 1.04689075 0 0 0
4681 2 0 185.063840179022 1.04689075 0 0 0
4682 2 6.8200004 179.15757631048902 1.04689075 0 0 0
4683 2 5.115017350001 182.11069347902202 1.04689075 0 0 0
4684 2 3.4100002 185.063840179022 1.04689075 0 0 0
4685 2 1.705017150001 188.01701641048902 1.04689075 0 0 0
4686 2 0 190.97013357902202 1.04689075 0 0 0
4687 2 10.230017650001 179.15757631048902 1.04689075 0 0 0
4688 2 8.5250005 182.11069347902202 1.04689075 0 0 0
4689 2 6.8200004 185.063840179022 1.04689075 0 0 0
4690 2 5.115017350001 188.01701641048902 1.04689075 0 0 0
4691 2 3.4100002 190.97013357902202 1.04689075 0 0 0
4692 2 13.640017850001 179.15757631048902 1.04689075 0 0 0
4693 2 11.935017750001 182.11069347902202 1.04689075 0 0 0
4694 2 10.230017650001 185.063840179022 1.04689075 0 0 0
4695 2 8.5250005 188.01701641048902 1.04689075 0 0 0
4696 2 6.8200004 190.97013357902202 1.04689075 0 0 0
4697 1 0 192.93893742097802 1.04689075 0 0 0
4698 1 3.409983149999 192.93893742097802 1.04689075 0 0 0
4699 1 1.7050001 195.89205458951102 1.04689075 0 0 0
4700 1 0 198.845201289511 1.04689075 0 0 0
4701 1 6.8200004 192.93893742097802 1.04689075 0 0 0
4702 1 5.114983249999 195.89205458951102 1.04689075 0 0 0
4703 1 3.409983149999 198.845201289511 1.04689075 0 0 0
4704 1 1.7050001 201.798347989511 1.04689075 0 0 0
4705 1 0 204.751524220978 1.04689075 0 0 0
4706 2 1.705017150001 193.923280279022 1.04689075 0 0 0
4707 2 0 196.87645651048902 1.04689075 0 0 0
4708 2 5.115017350001 193.923280279022 1.04689075 0 0 0
4709 2 3.4100002 196.87645651048902 1.04689075 0 0 0
4710 2 1.705017150001 199.829603210489 1.04689075 0 0 0
4711 2 0 202.782749910489 1.04689075 0 0 0
4712 1 15.344983849999 184.079467789511 1.04689075 0 0 0
4713 1 13.639983749999 187.032644020978 1.04689075 0 0 0
4714 1 11.934983649999 189.985761189511 1.04689075 0 0 0
4715 2 32.3950019 205.735867079022 1.04689075 0 0 0
4716 2 15.3450009 182.11069347902202 1.04689075 0 0 0
4717 2 13.640017850001 185.063840179022 1.04689075 0 0 0
4718 2 11.935017750001 188.01701641048902 1.04689075 0 0 0
4719 2 10.230017650001 190.97013357902202 1.04689075 0 0 0
4720 2 15.3450009 188.01701641048902 1.04689075 0 0 0
4721 2 13.640017850001 190.97013357902202 1.04689075 0 0 0
4722 1 10.2300006 192.93893742097802 1.04689075 0 0 0
4723 1 8.524983449999 195.89205458951102 1.04689075 0 0 0
4724 1 6.8200004 198.845201289511 1.04689075 0 0 0
4725 1 5.114983249999 201.798347989511 1.04689075 0 0 0
4726 1 3.409983149999 204.751524220978 1.04689075 0 0 0
4727 1 13.639983749999 192.93893742097802 1.04689075 0 0 0
4728 1 11.934983649999 195.89205458951102 1.04689075 0 0 0
4729 1 10.2300006 198.845201289511 1.04689075 0 0 0
4730 1 8.524983449999 201.798347989511 1.04689075 0 0 0
4731 1 6.8200004 204.751524220978 1.04689075 0 0 0
4732 1 15.344983849999 195.89205458951102 1.04689075 0 0 0
4733 1 13.639983749999 198.845201289511 1.04689075 0 0 0
4734 1 11.934983649999 201.798347989511 1.04689075 0 0 0
4735 1 10.2300006 204.751524220978 1.04689075 0 0 0
4736 1 15.344983849999 201.798347989511 1.04689075 0 0 0
4737 1 13.639983749999 204.751524220978 1.04689075 0 0 0
4738 2 8.5250005 193.923280279022 1.04689075 0 0 0
4739 2 6.8200004 196.87645651048902 1.04689075 0 0 0
4740 2 5.115017350001 199.829603210489 1.04689075 0 0 0
4741 2 3.4100002 202.782749910489 1.04689075 0 0 0
4742 2 1.705017150001 205.735867079022 1.04689075 0 0 0
4743 2 11.935017750001 193.923280279022 1.04689075 0 0 0
4744 2 10.230017650001 196.87645651048902 1.04689075 0 0 0
4745 2 8.5250005 199.829603210489 1.04689075 0 0 0
4746 2 6.8200004 202.782749910489 1.04689075 0 0 0
4747 2 5.115017350001 205.735867079022 1.04689075 0 0 0
4748 2 28.985018750001 205.735867079022 1.04689075 0 0 0
4749 2 13.640017850001 196.87645651048902 1.04689075 0 0 0
4750 2 11.935017750001 199.829603210489 1.04689075 0 0 0
4751 2 10.230017650001 202.782749910489 1.04689075 0 0 0
4752 2 8.5250005 205.735867079022 1.04689075 0 0 0
4753 2 15.3450009 199.829603210489 1.04689075 0 0 0
4754 2 13.640017850001 202.782749910489 1.04689075 0 0 0
4755 2 11.935017750001 205.735867079022 1.04689075 0 0 0
4756 2 15.3450009 205.735867079022 1.04689075 0 0 0
4757 1 18.7550011 178.173203920978 1.04689075 0 0 0
4758 1 17.050001 181.126321089511 1.04689075 0 0 0
4759 1 22.164984249999 178.173203920978 1.04689075 0 0 0
4760 1 20.459984149999 181.126321089511 1.04689075 0 0 0
4761 1 18.7550011 184.079467789511 1.04689075 0 0 0
4762 1 17.050001 187.032644020978 1.04689075 0 0 0
4763 1 25.574984449999 178.173203920978 1.04689075 0 0 0
4764 1 23.8700014 181.126321089511 1.04689075 0 0 0
4765 1 22.164984249999 184.079467789511 1.04689075 0 0 0
4766 1 20.459984149999 187.032644020978 1.04689075 0 0 0
4767 2 30.690018850001 202.782749910489 1.04689075 0 0 0
4768 1 28.984984649999 178.173203920978 1.04689075 0 0 0
4769 1 27.2800016 181.126321089511 1.04689075 0 0 0
4770 1 25.574984449999 184.079467789511 1.04689075 0 0 0
4771 1 23.8700014 187.032644020978 1.04689075 0 0 0
4772 1 22.164984249999 189.985761189511 1.04689075 0 0 0
4773 1 32.394984849999 178.173203920978 1.04689075 0 0 0
4774 1 30.689984749999 181.126321089511 1.04689075 0 0 0
4775 1 28.984984649999 184.079467789511 1.04689075 0 0 0
4776 1 27.2800016 187.032644020978 1.04689075 0 0 0
4777 1 25.574984449999 189.985761189511 1.04689075 0 0 0
4778 2 17.050001 179.15757631048902 1.04689075 0 0 0
4779 2 20.4600012 179.15757631048902 1.04689075 0 0 0
4780 2 18.755018150001 182.11069347902202 1.04689075 0 0 0
4781 2 17.050001 185.063840179022 1.04689075 0 0 0
4782 2 23.8700014 179.15757631048902 1.04689075 0 0 0
4783 2 22.165018350001 182.11069347902202 1.04689075 0 0 0
4784 2 20.4600012 185.063840179022 1.04689075 0 0 0
4785 2 18.755018150001 188.01701641048902 1.04689075 0 0 0
4786 2 32.3950019 199.829603210489 1.04689075 0 0 0
4787 2 27.280018650001 179.15757631048902 1.04689075 0 0 0
4788 2 25.5750015 182.11069347902202 1.04689075 0 0 0
4789 2 23.8700014 185.063840179022 1.04689075 0 0 0
4790 2 22.165018350001 188.01701641048902 1.04689075 0 0 0
4791 2 20.4600012 190.97013357902202 1.04689075 0 0 0
4792 2 30.690018850001 179.15757631048902 1.04689075 0 0 0
4793 2 28.985018750001 182.11069347902202 1.04689075 0 0 0
4794 2 27.280018650001 185.063840179022 1.04689075 0 0 0
4795 2 25.5750015 188.01701641048902 1.04689075 0 0 0
4796 2 23.8700014 190.97013357902202 1.04689075 0 0 0
4797 2 25.5750015 205.735867079022 1.04689075 0 0 0
4798 1 20.459984149999 192.93893742097802 1.04689075 0 0 0
4799 1 18.7550011 195.89205458951102 1.04689075 0 0 0
4800 1 17.050001 198.845201289511 1.04689075 0 0 0
4801 1 23.8700014 192.93893742097802 1.04689075 0 0 0
4802 1 22.164984249999 195.89205458951102 1.04689075 0 0 0
4803 1 20.459984149999 198.845201289511 1.04689075 0 0 0
4804 1 18.7550011 201.798347989511 1.04689075 0 0 0
4805 1 17.050001 204.751524220978 1.04689075 0 0 0
4806 2 27.280018650001 202.782749910489 1.04689075 0 0 0
4807 2 17.050001 196.87645651048902 1.04689075 0 0 0
4808 2 22.165018350001 193.923280279022 1.04689075 0 0 0
4809 2 20.4600012 196.87645651048902 1.04689075 0 0 0
4810 2 18.755018150001 199.829603210489 1.04689075 0 0 0
4811 2 17.050001 202.782749910489 1.04689075 0 0 0
4812 1 32.394984849999 184.079467789511 1.04689075 0 0 0
4813 1 30.689984749999 187.032644020978 1.04689075 0 0 0
4814 1 28.984984649999 189.985761189511 1.04689075 0 0 0
4815 1 32.394984849999 189.985761189511 1.04689075 0 0 0
4816 2 32.3950019 182.11069347902202 1.04689075 0 0 0
4817 2 30.690018850001 185.063840179022 1.04689075 0 0 0
4818 2 28.985018750001 188.01701641048902 1.04689075 0 0 0
4819 2 27.280018650001 190.97013357902202 1.04689075 0 0 0
4820 2 32.3950019 188.01701641048902 1.04689075 0 0 0
4821 2 30.690018850001 190.97013357902202 1.04689075 0 0 0
4822 1 27.2800016 192.93893742097802 1.04689075 0 0 0
4823 1 25.574984449999 195.89205458951102 1.04689075 0 0 0
4824 1 23.8700014 198.845201289511 1.04689075 0 0 0
4825 1 22.164984249999 201.798347989511 1.04689075 0 0 0
4826 1 20.459984149999 204.751524220978 1.04689075 0 0 0
4827 1 30.689984749999 192.93893742097802 1.04689075 0 0 0
4828 1 28.984984649999 195.89205458951102 1.04689075 0 0 0
4829 1 27.2800016 198.845201289511 1.04689075 0 0 0
4830 1 25.574984449999 201.798347989511 1.04689075 0 0 0
4831 1 23.8700014 204.751524220978 1.04689075 0 0 0
4832 1 32.394984849999 195.89205458951102 1.04689075 0 0 0
4833 1 30.689984749999 198.845201289511 1.04689075 0 0 0
4834 1 28.984984649999 201.798347989511 1.04689075 0 0 0
4835 1 27.2800016 204.751524220978 1.04689075 0 0 0
4836 1 32.394984849999 201.798347989511 1.04689075 0 0 0
4837 1 30.689984749999 204.751524220978 1.04689075 0 0 0
4838 2 25.5750015 193.923280279022 1.04689075 0 0 0
4839 2 23.8700014 196.87645651048902 1.04689075 0 0 0
4840 2 22.165018350001 199.829603210489 1.04689075 0 0 0
4841 2 20.4600012 202.782749910489 1.04689075 0 0 0
4842 2 18.755018150001 205.735867079022 1.04689075 0 0 0
4843 2 28.985018750001 193.923280279022 1.04689075 0 0 0
4844 2 27.280018650001 196.87645651048902 1.04689075 0 0 0
4845 2 25.5750015 199.829603210489 1.04689075 0 0 0
4846 2 23.8700014 202.782749910489 1.04689075 0 0 0
4847 2 22.165018350001 205.735867079022 1.04689075 0 0 0
4848 2 32.3950019 193.923280279022 1.04689075 0 0 0
4849 2 30.690018850001 196.87645651048902 1.04689075 0 0 0
4850 2 28.985018750001 199.829603210489 1.04689075 0 0 0
5433 1 1.7050001 207.704670920978 1.04689075 0 0 0
5434 1 0 210.657788089511 1.04689075 0 0 0
5435 1 5.114983249999 207.704670920978 1.04689075 0 0 0
5436 1 3.409983149999 210.657788089511 1.04689075 0 0 0
5437 1 1.7050001 213.610934789511 1.04689075 0 0 0
5438 1 0 216.564111020978 1.04689075 0 0 0
5439 1 8.524983449999 207.704670920978 1.04689075 0 0 0
5440 1 6.8200004 210.657788089511 1.04689075 0 0 0
5441 1 5.114983249999 213.610934789511 1.04689075 0 0 0
5442 1 3.409983149999 216.564111020978 1.04689075 0 0 0
5443 1 1.7050001 219.517228189511 1.04689075 0 0 0
5444 1 11.934983649999 207.704670920978 1.04689075 0 0 0
5445 1 10.2300006 210.657788089511 1.04689075 0 0 0
5446 1 8.524983449999 213.610934789511 1.04689075 0 0 0
5447 1 6.8200004 216.564111020978 1.04689075 0 0 0
5448 1 5.114983249999 219.517228189511 1.04689075 0 0 0
5449 1 15.344983849999 207.704670920978 1.04689075 0 0 0
5450 1 13.639983749999 210.657788089511 1.04689075 0 0 0
5451 1 11.934983649999 213.610934789511 1.04689075 0 0 0
5452 1 10.2300006 216.564111020978 1.04689075 0 0 0
5453 1 8.524983449999 219.517228189511 1.04689075 0 0 0
5454 2 0 208.689043310489 1.04689075 0 0 0
5455 2 3.4100002 208.689043310489 1.04689075 0 0 0
5456 2 1.705017150001 211.642160479022 1.04689075 0 0 0
5457 2 0 214.595307179022 1.04689075 0 0 0
5458 2 6.8200004 208.689043310489 1.04689075 0 0 0
5459 2 5.115017350001 211.642160479022 1.04689075 0 0 0
5460 2 3.4100002 214.595307179022 1.04689075 0 0 0
5461 2 1.705017150001 217.548483410489 1.04689075 0 0 0
5462 2 0 220.501600579022 1.04689075 0 0 0
5463 2 10.230017650001 208.689043310489 1.04689075 0 0 0
5464 2 8.5250005 211.642160479022 1.04689075 0 0 0
5465 2 6.8200004 214.595307179022 1.04689075 0 0 0
5466 2 5.115017350001 217.548483410489 1.04689075 0 0 0
5467 2 3.4100002 220.501600579022 1.04689075 0 0 0
5468 2 13.640017850001 208.689043310489 1.04689075 0 0 0
5469 2 11.935017750001 211.642160479022 1.04689075 0 0 0
5470 2 10.230017650001 214.595307179022 1.04689075 0 0 0
5471 2 8.5250005 217.548483410489 1.04689075 0 0 0
5472 2 6.8200004 220.501600579022 1.04689075 0 0 0
5473 1 0 222.470404420978 1.04689075 0 0 0
5474 1 3.409983149999 222.470404420978 1.04689075 0 0 0
5475 1 1.7050001 225.423521589511 1.04689075 0 0 0
5476 1 0 228.376668289511 1.04689075 0 0 0
5477 1 6.8200004 222.470404420978 1.04689075 0 0 0
5478 1 5.114983249999 225.423521589511 1.04689075 0 0 0
5479 1 3.409983149999 228.376668289511 1.04689075 0 0 0
5480 1 1.7050001 231.329814989511 1.04689075 0 0 0
5481 1 0 234.282991220978 1.04689075 0 0 0
5482 2 1.705017150001 223.454747279022 1.04689075 0 0 0
5483 2 0 226.407923510489 1.04689075 0 0 0
5484 2 5.115017350001 223.454747279022 1.04689075 0 0 0
5485 2 3.4100002 226.407923510489 1.04689075 0 0 0
5486 2 1.705017150001 229.361070210489 1.04689075 0 0 0
5487 2 0 232.314216910489 1.04689075 0 0 0
5488 1 15.344983849999 213.610934789511 1.04689075 0 0 0
5489 1 13.639983749999 216.564111020978 1.04689075 0 0 0
5490 1 11.934983649999 219.517228189511 1.04689075 0 0 0
5491 2 32.3950019 235.267334079022 1.04689075 0 0 0
5492 2 15.3450009 211.642160479022 1.04689075 0 0 0
5493 2 13.640017850001 214.595307179022 1.04689075 0 0 0
5494 2 11.935017750001 217.548483410489 1.04689075 0 0 0
5495 2 10.230017650001 220.501600579022 1.04689075 0 0 0
5496 2 15.3450009 217.548483410489 1.04689075 0 0 0
5497 2 13.640017850001 220.501600579022 1.04689075 0 0 0
5498 1 10.2300006 222.470404420978 1.04689075 0 0 0
5499 1 8.524983449999 225.423521589511 1.04689075 0 0 0
5500 1 6.8200004 228.376668289511 1.04689075 0 0 0
5501 1 5.114983249999 231.329814989511 1.04689075 0 0 0
5502 1 3.409983149999 234.282991220978 1.04689075 0 0 0
5503 1 13.639983749999 222.470404420978 1.04689075 0 0 0
5504 1 11.934983649999 225.423521589511 1.04689075 0 0 0
5505 1 10.2300006 228.376668289511 1.04689075 0 0 0
5506 1 8.524983449999 231.329814989511 1.04689075 0 0 0
5507 1 6.8200004 234.282991220978 1.04689075 0 0 0
5508 1 15.344983849999 225.423521589511 1.04689075 0 0 0
5509 1 13.639983749999 228.376668289511 1.04689075 0 0 0
5510 1 11.934983649999 231.329814989511 1.04689075 0 0 0
5511 1 10.2300006 234.282991220978 1.04689075 0 0 0
5512 1 15.344983849999 231.329814989511 1.04689075 0 0 0
5513 1 13.639983749999 234.282991220978 1.04689075 0 0 0
5514 2 8.5250005 223.454747279022 1.04689075 0 0 0
5515 2 6.8200004 226.407923510489 1.04689075 0 0 0
5516 2 5.115017350001 229.361070210489 1.04689075 0 0 0
5517 2 3.4100002 232.314216910489 1.04689075 0 0 0
5518 2 1.705017150001 235.267334079022 1.04689075 0 0 0
5519 2 11.935017750001 223.454747279022 1.04689075 0 0 0
5520 2 10.230017650001 226.407923510489 1.04689075 0 0 0
5521 2 8.5250005 229.361070210489 1.04689075 0 0 0
5522 2 6.8200004 232.314216910489 1.04689075 0 0 0
5523 2 5.115017350001 235.267334079022 1.04689075 0 0 0
5524 2 28.985018750001 235.267334079022 1.04689075 0 0 0
5525 2 13.640017850001 226.407923510489 1.04689075 0 0 0
5526 2 11.935017750001 229.361070210489 1.04689075 0 0 0
5527 2 10.230017650001 232.314216910489 1.04689075 0 0 0
5528 2 8.5250005 235.267334079022 1.04689075 0 0 0
5529 2 15.3450009 229.361070210489 1.04689075 0 0 0
5530 2 13.640017850001 232.314216910489 1.04689075 0 0 0
5531 2 11.935017750001 235.267334079022 1.04689075 0 0 0
5532 2 15.3450009 235.267334079022 1.04689075 0 0 0
5533 1 18.7550011 207.704670920978 1.04689075 0 0 0
5534 1 17.050001 210.657788089511 1.04689075 0 0 0
5535 1 22.164984249999 207.704670920978 1.04689075 0 0 0
5536 1 20.459984149999 210.657788089511 1.04689075 0 0 0
5537 1 18.7550011 213.610934789511 1.04689075 0 0 0
5538 1 17.050001 216.564111020978 1.04689075 0 0 0
5539 1 25.574984449999 207.704670920978 1.04689075 0 0 0
5540 1 23.8700014 210.657788089511 1.04689075 0 0 0
5541 1 22.164984249999 213.610934789511 1.04689075 0 0 0
5542 1 20.459984149999 216.564111020978 1.04689075 0 0 0
5543 2 30.690018850001 232.314216910489 1.04689075 0 0 0
5544 1 28.984984649999 207.704670920978 1.04689075 0 0 0
5545 1 27.2800016 210.657788089511 1.04689075 0 0 0
5546 1 25.574984449999 213.610934789511 1.04689075 0 0 0
5547 1 23.8700014 216.564111020978 1.04689075 0 0 0
5548 1 22.164984249999 219.517228189511 1.04689075 0 0 0
5549 1 32.394984849999 207.704670920978 1.04689075 0 0 0
5550 1 30.689984749999 210.657788089511 1.04689075 0 0 0
5551 1 28.984984649999 213.610934789511 1.04689075 0 0 0
5552 1 27.2800016 216.564111020978 1.04689075 0 0 0
5553 1 25.574984449999 219.517228189511 1.04689075 0 0 0
5554 2 17.050001 208.689043310489 1.04689075 0 0 0
5555 2 20.4600012 208.689043310489 1.04689075 0 0 0
5556 2 18.755018150001 211.642160479022 1.04689075 0 0 0
5557 2 17.050001 214.595307179022 1.04689075 0 0 0
5558 2 23.8700014 208.689043310489 1.04689075 0 0 0
5559 2 22.165018350001 211.642160479022 1.04689075 0 0 0
5560 2 20.4600012 214.595307179022 1.04689075 0 0 0
5561 2 18.755018150001 217.548483410489 1.04689075 0 0 0
5562 2 32.3950019 229.361070210489 1.04689075 0 0 0
5563 2 27.280018650001 208.689043310489 1.04689075 0 0 0
5564 2 25.5750015 211.642160479022 1.04689075 0 0 0
5565 2 23.8700014 214.595307179022 1.04689075 0 0 0
5566 2 22.165018350001 217.548483410489 1.04689075 0 0 0
5567 2 20.4600012 220.501600579022 1.04689075 0 0 0
5568 2 30.690018850001 208.689043310489 1.04689075 0 0 0
5569 2 28.985018750001 211.642160479022 1.04689075 0 0 0
5570 2 27.280018650001 214.595307179022 1.04689075 0 0 0
5571 2 25.5750015 217.548483410489 1.04689075 0 0 0
5572 2 23.8700014 220.501600579022 1.04689075 0 0 0
5573 2 25.5750015 235.267334079022 1.04689075 0 0 0
5574 1 20.459984149999 222.470404420978 1.04689075 0 0 0
5575 1 18.7550011 225.423521589511 1.04689075 0 0 0
5576 1 17.050001 228.376668289511 1.04689075 0 0 0
5577 1 23.8700014 222.470404420978 1.04689075 0 0 0
5578 1 22.164984249999 225.423521589511 1.04689075 0 0 0
5579 1 20.459984149999 228.376668289511 1.04689075 0 0 0
5580 1 18.7550011 231.329814989511 1.04689075 0 0 0
5581 1 17.050001 234.282991220978 1.04689075 0 0 0
5582 2 27.280018650001 232.314216910489 1.04689075 0 0 0
5583 2 17.050001 226.407923510489 1.04689075 0 0 0
5584 2 22.165018350001 223.454747279022 1.04689075 0 0 0
5585 2 20.4600012 226.407923510489 1.04689075 0 0 0
5586 2 18.755018150001 229.361070210489 1.04689075 0 0 0
5587 2 17.050001 232.314216910489 1.04689075 0 0 0
5588 1 32.394984849999 213.610934789511 1.04689075 0 0 0
5589 1 30.689984749999 216.564111020978 1.04689075 0 0 0
5590 1 28.984984649999 219.517228189511 1.04689075 0 0 0
5591 1 32.394984849999 219.517228189511 1.04689075 0 0 0
5592 2 32.3950019 211.642160479022 1.04689075 0 0 0
5593 2 30.690018850001 214.595307179022 1.04689075 0 0 0
5594 2 28.985018750001 217.548483410489 1.04689075 0 0 0
5595 2 27.280018650001 220.501600579022 1.04689075 0 0 0
5596 2 32.3950019 217.548483410489 1.04689075 0 0 0
5597 2 30.690018850001 220.501600579022 1.04689075 0 0 0
5598 1 27.2800016 222.470404420978 1.04689075 0 0 0
5599 1 25.574984449999 225.423521589511 1.04689075 0 0 0
5600 1 23.8700014 228.376668289511 1.04689075 0 0 0
5601 1 22.164984249999 231.329814989511 1.04689075 0 0 0
5602 1 20.459984149999 234.282991220978 1.04689075 0 0 0
5603 1 30.689984749999 222.470404420978 1.04689075 0 0 0
5604 1 28.984984649999 225.423521589511 1.04689075 0 0 0
5605 1 27.2800016 228.376668289511 1.04689075 0 0 0
5606 1 25.574984449999 231.329814989511 1.04689075 0 0 0
5607 1 23.8700014 234.282991220978 1.04689075 0 0 0
5608 1 32.394984849999 225.423521589511 1.04689075 0 0 0
5609 1 30.689984749999 228.376668289511 1.04689075 0 0 0
5610 1 28.984984649999 231.329814989511 1.04689075 0 0 0
5611 1 27.2800016 234.282991220978 1.04689075 0 0 0
5612 1 32.394984849999 231.329814989511 1.04689075 0 0 0
5613 1 30.689984749999 234.282991220978 1.04689075 0 0 0
5614 2 25.5750015 223.454747279022 1.04689075 0 0 0
5615 2 23.8700014 226.407923510489 1.04689075 0 0 0
5616 2 22.165018350001 229.361070210489 1.04689075 0 0 0
5617 2 20.4600012 232.314216910489 1.04689075 0 0 0
5618 2 18.755018150001 235.267334079022 1.04689075 0 0 0
5619 2 28.985018750001 223.454747279022 1.04689075 0 0 0
5620 2 27.280018650001 226.407923510489 1.04689075 0 0 0
5621 2 25.5750015 229.361070210489 1.04689075 0 0 0
5622 2 23.8700014 232.314216910489 1.04689075 0 0 0
5623 2 22.165018350001 235.267334079022 1.04689075 0 0 0
5624 2 32.3950019 223.454747279022 1.04689075 0 0 0
5625 2 30.690018850001 226.407923510489 1.04689075 0 0 0
5626 2 28.985018750001 229.361070210489 1.04689075 0 0 0
6209 1 1.7050001 237.236137920978 1.04689075 0 0 0
6210 1 0 240.189255089511 1.04689075 0 0 0
6211 1 5.114983249999 237.236137920978 1.04689075 0 0 0
6212 1 3.409983149999 240.189255089511 1.04689075 0 0 0
6213 1 1.7050001 243.14240178951098 1.04689075 0 0 0
6214 1 0 246.095578020978 1.04689075 0 0 0
6215 1 8.524983449999 237.236137920978 1.04689075 0 0 0
6216 1 6.8200004 240.189255089511 1.04689075 0 0 0
6217 1 5.114983249999 243.14240178951098 1.04689075 0 0 0
6218 1 3.409983149999 246.095578020978 1.04689075 0 0 0
6219 1 1.7050001 249.048695189511 1.04689075 0 0 0
6220 1 11.934983649999 237.236137920978 1.04689075 0 0 0
6221 1 10.2300006 240.189255089511 1.04689075 0 0 0
6222 1 8.524983449999 243.14240178951098 1.04689075 0 0 0
6223 1 6.8200004 246.095578020978 1.04689075 0 0 0
6224 1 5.114983249999 249.048695189511 1.04689075 0 0 0
6225 1 15.344983849999 237.236137920978 1.04689075 0 0 0
6226 1 13.639983749999 240.189255089511 1.04689075 0 0 0
6227 1 11.934983649999 243.14240178951098 1.04689075 0 0 0
6228 1 10.2300006 246.095578020978 1.04689075 0 0 0
6229 1 8.524983449999 249.048695189511 1.04689075 0 0 0
6230 2 0 238.220510310489 1.04689075 0 0 0
6231 2 3.4100002 238.220510310489 1.04689075 0 0 0
6232 2 1.705017150001 241.173627479022 1.04689075 0 0 0
6233 2 0 244.126774179022 1.04689075 0 0 0
6234 2 6.8200004 238.220510310489 1.04689075 0 0 0
6235 2 5.115017350001 241.173627479022 1.04689075 0 0 0
6236 2 3.4100002 244.126774179022 1.04689075 0 0 0
6237 2 1.705017150001 247.079950410489 1.04689075 0 0 0
6238 2 0 250.033067579022 1.04689075 0 0 0
6239 2 10.230017650001 238.220510310489 1.04689075 0 0 0
6240 2 8.5250005 241.173627479022 1.04689075 0 0 0
6241 2 6.8200004 244.126774179022 1.04689075 0 0 0
6242 2 5.115017350001 247.079950410489 1.04689075 0 0 0
6243 2 3.4100002 250.033067579022 1.04689075 0 0 0
6244 2 13.640017850001 238.220510310489 1.04689075 0 0 0
6245 2 11.935017750001 241.173627479022 1.04689075 0 0 0
6246 2 10.230017650001 244.126774179022 1.04689075 0 0 0
6247 2 8.5250005 247.079950410489 1.04689075 0 0 0
6248 2 6.8200004 250.033067579022 1.04689075 0 0 0
6249 1 0 252.001871420978 1.04689075 0 0 0
6250 1 3.409983149999 252.001871420978 1.04689075 0 0 0
6251 1 1.7050001 254.954988589511 1.04689075 0 0 0
6252 1 0 257.908135289511 1.04689075 0 0 0
6253 1 6.8200004 252.001871420978 1.04689075 0 0 0
6254 1 5.114983249999 254.954988589511 1.04689075 0 0 0
6255 1 3.409983149999 257.908135289511 1.04689075 0 0 0
6256 1 1.7050001 260.861281989511 1.04689075 0 0 0
6257 1 0 263.814458220978 1.04689075 0 0 0
6258 2 1.705017150001 252.986214279022 1.04689075 0 0 0
6259 2 0 255.939390510489 1.04689075 0 0 0
6260 2 5.115017350001 252.986214279022 1.04689075 0 0 0
6261 2 3.4100002 255.939390510489 1.04689075 0 0 0
6262 2 1.705017150001 258.89253721048897 1.04689075 0 0 0
6263 2 0 261.845683910489 1.04689075 0 0 0
6264 1 15.344983849999 243.14240178951098 1.04689075 0 0 0
6265 1 13.639983749999 246.095578020978 1.04689075 0 0 0
6266 1 11.934983649999 249.048695189511 1.04689075 0 0 0
6267 2 32.3950019 264.798801079022 1.04689075 0 0 0
6268 2 15.3450009 241.173627479022 1.04689075 0 0 0
6269 2 13.640017850001 244.126774179022 1.04689075 0 0 0
6270 2 11.935017750001 247.079950410489 1.04689075 0 0 0
6271 2 10.230017650001 250.033067579022 1.04689075 0 0 0
6272 2 15.3450009 247.079950410489 1.04689075 0 0 0
6273 2 13.640017850001 250.033067579022 1.04689075 0 0 0
6274 1 10.2300006 252.001871420978 1.04689075 0 0 0
6275 1 8.524983449999 254.954988589511 1.04689075 0 0 0
6276 1 6.8200004 257.908135289511 1.04689075 0 0 0
6277 1 5.114983249999 260.861281989511 1.04689075 0 0 0
6278 1 3.409983149999 263.814458220978 1.04689075 0 0 0
6279 1 13.639983749999 252.001871420978 1.04689075 0 0 0
6280 1 11.934983649999 254.954988589511 1.04689075 0 0 0
6281 1 10.2300006 257.908135289511 1.04689075 0 0 0
6282 1 8.524983449999 260.861281989511 1.04689075 0 0 0
6283 1 6.8200004 263.814458220978 1.04689075 0 0 0
6284 1 15.344983849999 254.954988589511 1.04689075 0 0 0
6285 1 13.639983749999 257.908135289511 1.04689075 0 0 0
6286 1 11.934983649999 260.861281989511 1.04689075 0 0 0
6287 1 10.2300006 263.814458220978 1.04689075 0 0 0
6288 1 15.344983849999 260.861281989511 1.04689075 0 0 0
6289 1 13.639983749999 263.814458220978 1.04689075 0 0 0
6290 2 8.5250005 252.986214279022 1.04689075 0 0 0
6291 2 6.8200004 255.939390510489 1.04689075 0 0 0
6292 2 5.115017350001 258.89253721048897 1.04689075 0 0 0
6293 2 3.4100002 261.845683910489 1.04689075 0 0 0
6294 2 1.705017150001 264.798801079022 1.04689075 0 0 0
6295 2 11.935017750001 252.986214279022 1.04689075 0 0 0
6296 2 10.230017650001 255.939390510489 1.04689075 0 0 0
6297 2 8.5250005 258.89253721048897 1.04689075 0 0 0
6298 2 6.8200004 261.845683910489 1.04689075 0 0 0
6299 2 5.115017350001 264.798801079022 1.04689075 0 0 0
6300 2 28.985018750001 264.798801079022 1.04689075 0 0 0
6301 2 13.640017850001 255.939390510489 1.04689075 0 0 0
6302 2 11.935017750001 258.89253721048897 1.04689075 0 0 0
6303 2 10.230017650001 261.845683910489 1.04689075 0 0 0
6304 2 8.5250005 264.798801079022 1.04689075 0 0 0
6305 2 15.3450009 258.89253721048897 1.04689075 0 0 0
6306 2 13.640017850001 261.845683910489 1.04689075 0 0 0
6307 2 11.935017750001 264.798801079022 1.04689075 0 0 0
6308 2 15.3450009 264.798801079022 1.04689075 0 0 0
6309 1 18.7550011 237.236137920978 1.04689075 0 0 0
6310 1 17.050001 240.189255089511 1.04689075 0 0 0
6311 1 22.164984249999 237.236137920978 1.04689075 0 0 0
6312 1 20.459984149999 240.189255089511 1.04689075 0 0 0
6313 1 18.7550011 243.14240178951098 1.04689075 0 0 0
6314 1 17.050001 246.095578020978 1.04689075 0 0 0
6315 1 25.574984449999 237.236137920978 1.04689075 0 0 0
6316 1 23.8700014 240.189255089511 1.04689075 0 0 0
6317 1 22.164984249999 243.14240178951098 1.04689075 0 0 0
6318 1 20.459984149999 246.095578020978 1.04689075 0 0 0
6319 2 30.690018850001 261.845683910489 1.04689075 0 0 0
6320 1 28.984984649999 237.236137920978 1.04689075 0 0 0
6321 1 27.2800016 240.189255089511 1.04689075 0 0 0
6322 1 25.574984449999 243.14240178951098 1.04689075 0 0 0
6323 1 23.8700014 246.095578020978 1.04689075 0 0 0
6324 1 22.164984249999 249.048695189511 1.04689075 0 0 0
6325 1 32.394984849999 237.236137920978 1.04689075 0 0 0
6326 1 30.689984749999 240.189255089511 1.04689075 0 0 0
6327 1 28.984984649999 243.14240178951098 1.04689075 0 0 0
6328 1 27.2800016 246.095578020978 1.04689075 0 0 0
6329 1 25.574984449999 249.048695189511 1.04689075 0 0 0
6330 2 17.050001 238.220510310489 1.04689075 0 0 0
6331 2 20.4600012 238.220510310489 1.04689075 0 0 0
6332 2 18.755018150001 241.173627479022 1.04689075 0 0 0
6333 2 17.050001 244.126774179022 1.04689075 0 0 0
6334 2 23.8700014 238.220510310489 1.04689075 0 0 0
6335 2 22.165018350001 241.173627479022 1.04689075 0 0 0
6336 2 20.4600012 244.126774179022 1.04689075 0 0 0
6337 2 18.755018150001 247.079950410489 1.04689075 0 0 0
6338 2 32.3950019 258.89253721048897 1.04689075 0 0 0
6339 2 27.280018650001 238.220510310489 1.04689075 0 0 0
6340 2 25.5750015 241.173627479022 1.04689075 0 0 0
6341 2 23.8700014 244.126774179022 1.04689075 0 0 0
6342 2 22.165018350001 247.079950410489 1.04689075 0 0 0
6343 2 20.4600012 250.033067579022 1.04689075 0 0 0
6344 2 30.690018850001 238.220510310489 1.04689075 0 0 0
6345 2 28.985018750001 241.173627479022 1.04689075 0 0 0
6346 2 27.280018650001 244.126774179022 1.04689075 0 0 0
6347 2 25.5750015 247.079950410489 1.04689075 0 0 0
6348 2 23.8700014 250.033067579022 1.04689075 0 0 0
6349 2 25.5750015 264.798801079022 1.04689075 0 0 0
6350 1 20.459984149999 252.001871420978 1.04689075 0 0 0
6351 1 18.7550011 254.954988589511 1.04689075 0 0 0
6352 1 17.050001 257.908135289511 1.04689075 0 0 0
6353 1 23.8700014 252.001871420978 1.04689075 0 0 0
6354 1 22.164984249999 254.954988589511 1.04689075 0 0 0
6355 1 20.459984149999 257.908135289511 1.04689075 0 0 0
6356 1 18.7550011 260.861281989511 1.04689075 0 0 0
6357 1 17.050001 263.814458220978 1.04689075 0 0 0
6358 2 27.280018650001 261.845683910489 1.04689075 0 0 0
6359 2 17.050001 255.939390510489 1.04689075 0 0 0
6360 2 22.165018350001 252.986214279022 1.04689075 0 0 0
6361 2 20.4600012 255.939390510489 1.04689075 0 0 0
6362 2 18.755018150001 258.89253721048897 1.04689075 0 0 0
6363 2 17.050001 261.845683910489 1.04689075 0 0 0
6364 1 32.394984849999 243.14240178951098 1.04689075 0 0 0
6365 1 30.689984749999 246.095578020978 1.04689075 0 0 0
6366 1 28.984984649999 249.048695189511 1.04689075 0 0 0
6367 1 32.394984849999 249.048695189511 1.04689075 0 0 0
6368 2 32.3950019 241.173627479022 1.04689075 0 0 0
6369 2 30.690018850001 244.126774179022 1.04689075 0 0 0
6370 2 28.985018750001 247.079950410489 1.04689075 0 0 0
6371 2 27.280018650001 250.033067579022 1.04689075 0 0 0
6372 2 32.3950019 247.079950410489 1.04689075 0 0 0
6373 2 30.690018850001 250.033067579022 1.04689075 0 0 0
6374 1 27.2800016 252.001871420978 1.04689075 0 0 0
6375 1 25.574984449999 254.954988589511 1.04689075 0 0 0
6376 1 23.8700014 257.908135289511 1.04689075 0 0 0
6377 1 22.164984249999 260.861281989511 1.04689075 0 0 0
6378 1 20.459984149999 263.814458220978 1.04689075 0 0 0
6379 1 30.689984749999 252.001871420978 1.04689075 0 0 0
6380 1 28.984984649999 254.954988589511 1.04689075 0 0 0
6381 1 27.2800016 257.908135289511 1.04689075 0 0 0
6382 1 25.574984449999 260.861281989511 1.04689075 0 0 0
6383 1 23.8700014 263.814458220978 1.04689075 0 0 0
6384 1 32.394984849999 254.954988589511 1.04689075 0 0 0
6385 1 30.689984749999 257.908135289511 1.04689075 0 0 0
6386 1 28.984984649999 260.861281989511 1.04689075 0 0 0
6387 1 27.2800016 263.814458220978 1.04689075 0 0 0
6388 1 32.394984849999 260.861281989511 1.04689075 0 0 0
6389 1 30.689984749999 263.814458220978 1.04689075 0 0 0
6390 2 25.5750015 252.986214279022 1.04689075 0 0 0
6391 2 23.8700014 255.939390510489 1.04689075 0 0 0
6392 2 22.165018350001 258.89253721048897 1.04689075 0 0 0
6393 2 20.4600012 261.845683910489 1.04689075 0 0 0
6394 2 18.755018150001 264.798801079022 1.04689075 0 0 0
6395 2 28.985018750001 252.986214279022 1.04689075 0 0 0
6396 2 27.280018650001 255.939390510489 1.04689075 0 0 0
6397 2 25.5750015 258.89253721048897 1.04689075 0 0 0
6398 2 23.8700014 261.845683910489 1.04689075 0 0 0
6399 2 22.165018350001 264.798801079022 1.04689075 0 0 0
6400 2 32.3950019 252.986214279022 1.04689075 0 0 0
6401 2 30.690018850001 255.939390510489 1.04689075 0 0 0
6402 2 28.985018750001 258.89253721048897 1.04689075 0 0 0
6985 1 1.7050001 266.767604920978 1.04689075 0 0 0
6986 1 0 269.720722089511 1.04689075 0 0 0
6987 1 5.114983249999 266.767604920978 1.04689075 0 0 0
6988 1 3.409983149999 269.720722089511 1.04689075 0 0 0
6989 1 1.7050001 272.673868789511 1.04689075 0 0 0
6990 1 0 275.627045020978 1.04689075 0 0 0
6991 1 8.524983449999 266.767604920978 1.04689075 0 0 0
6992 1 6.8200004 269.720722089511 1.04689075 0 0 0
6993 1 5.114983249999 272.673868789511 1.04689075 0 0 0
6994 1 3.409983149999 275.627045020978 1.04689075 0 0 0
6995 1 1.7050001 278.58016218951104 1.04689075 0 0 0
6996 1 11.934983649999 266.767604920978 1.04689075 0 0 0
6997 1 10.2300006 269.720722089511 1.04689075 0 0 0
6998 1 8.524983449999 272.673868789511 1.04689075 0 0 0
6999 1 6.8200004 275.627045020978 1.04689075 0 0 0
7000 1 5.114983249999 278.58016218951104 1.04689075 0 0 0
7001 1 15.344983849999 266.767604920978 1.04689075 0 0 0
7002 1 13.639983749999 269.720722089511 1.04689075 0 0 0
7003 1 11.934983649999 272.673868789511 1.04689075 0 0 0
7004 1 10.2300006 275.627045020978 1.04689075 0 0 0
7005 1 8.524983449999 278.58016218951104 1.04689075 0 0 0
7006 2 0 267.751977310489 1.04689075 0 0 0
7007 2 3.4100002 267.751977310489 1.04689075 0 0 0
7008 2 1.705017150001 270.705094479022 1.04689075 0 0 0
7009 2 0 273.658241179022 1.04689075 0 0 0
7010 2 6.8200004 267.751977310489 1.04689075 0 0 0
7011 2 5.115017350001 270.705094479022 1.04689075 0 0 0
7012 2 3.4100002 273.658241179022 1.04689075 0 0 0
7013 2 1.705017150001 276.611417410489 1.04689075 0 0 0
7014 2 0 279.564534579022 1.04689075 0 0 0
7015 2 10.230017650001 267.751977310489 1.04689075 0 0 0
7016 2 8.5250005 270.705094479022 1.04689075 0 0 0
7017 2 6.8200004 273.658241179022 1.04689075 0 0 0
7018 2 5.115017350001 276.611417410489 1.04689075 0 0 0
7019 2 3.4100002 279.564534579022 1.04689075 0 0 0
7020 2 13.640017850001 267.751977310489 1.04689075 0 0 0
7021 2 11.935017750001 270.705094479022 1.04689075 0 0 0
7022 2 10.230017650001 273.658241179022 1.04689075 0 0 0
7023 2 8.5250005 276.611417410489 1.04689075 0 0 0
7024 2 6.8200004 279.564534579022 1.04689075 0 0 0
7025 1 0 281.533338420978 1.04689075 0 0 0
7026 1 3.409983149999 281.533338420978 1.04689075 0 0 0
7027 1 1.7050001 284.486455589511 1.04689075 0 0 0
7028 1 0 287.439602289511 1.04689075 0 0 0
7029 1 6.8200004 281.533338420978 1.04689075 0 0 0
7030 1 5.114983249999 284.486455589511 1.04689075 0 0 0
7031 1 3.409983149999 287.439602289511 1.04689075 0 0 0
7032 1 1.7050001 290.392748989511 1.04689075 0 0 0
7033 1 0 293.345925220978 1.04689075 0 0 0
7034 2 1.705017150001 282.517681279022 1.04689075 0 0 0
7035 2 0 285.470857510489 1.04689075 0 0 0
7036 2 5.115017350001 282.517681279022 1.04689075 0 0 0
7037 2 3.4100002 285.470857510489 1.04689075 0 0 0
7038 2 1.705017150001 288.424004210489 1.04689075 0 0 0
7039 2 0 291.37715091048904 1.04689075 0 0 0
7040 1 15.344983849999 272.673868789511 1.04689075 0 0 0
7041 1 13.639983749999 275.627045020978 1.04689075 0 0 0
7042 1 11.934983649999 278.58016218951104 1.04689075 0 0 0
7043 2 32.3950019 294.330268079022 1.04689075 0 0 0
7044 2 15.3450009 270.705094479022 1.04689075 0 0 0
7045 2 13.640017850001 273.658241179022 1.04689075 0 0 0
7046 2 11.935017750001 276.611417410489 1.04689075 0 0 0
7047 2 10.230017650001 279.564534579022 1.04689075 0 0 0
7048 2 15.3450009 276.611417410489 1.04689075 0 0 0
7049 2 13.640017850001 279.564534579022 1.04689075 0 0 0
7050 1 10.2300006 281.533338420978 1.04689075 0 0 0
7051 1 8.524983449999 284.486455589511 1.04689075 0 0 0
7052 1 6.8200004 287.439602289511 1.04689075 0 0 0
7053 1 5.114983249999 290.392748989511 1.04689075 0 0 0
7054 1 3.409983149999 293.345925220978 1.04689075 0 0 0
7055 1 13.639983749999 281.533338420978 1.04689075 0 0 0
7056 1 11.934983649999 284.486455589511 1.04689075 0 0 0
7057 1 10.2300006 287.439602289511 1.04689075 0 0 0
7058 1 8.524983449999 290.392748989511 1.04689075 0 0 0
7059 1 6.8200004 293.345925220978 1.04689075 0 0 0
7060 1 15.344983849999 284.486455589511 1.04689075 0 0 0
7061 1 13.639983749999 287.439602289511 1.04689075 0 0 0
7062 1 11.934983649999 290.392748989511 1.04689075 0 0 0
7063 1 10.2300006 293.345925220978 1.04689075 0 0 0
7064 1 15.344983849999 290.392748989511 1.04689075 0 0 0
7065 1 13.639983749999 293.345925220978 1.04689075 0 0 0
7066 2 8.5250005 282.517681279022 1.04689075 0 0 0
7067 2 6.8200004 285.470857510489 1.04689075 0 0 0
7068 2 5.115017350001 288.424004210489 1.04689075 0 0 0
7069 2 3.4100002 291.37715091048904 1.04689075 0 0 0
7070 2 1.705017150001 294.330268079022 1.04689075 0 0 0
7071 2 11.935017750001 282.517681279022 1.04689075 0 0 0
7072 2 10.230017650001 285.470857510489 1.04689075 0 0 0
7073 2 8.5250005 288.424004210489 1.04689075 0 0 0
7074 2 6.8200004 291.37715091048904 1.04689075 0 0 0
7075 2 5.115017350001 294.330268079022 1.04689075 0 0 0
7076 2 28.985018750001 294.330268079022 1.04689075 0 0 0
7077 2 13.640017850001 285.470857510489 1.04689075 0 0 0
7078 2 11.935017750001 288.424004210489 1.04689075 0 0 0
7079 2 10.230017650001 291.37715091048904 1.04689075 0 0 0
7080 2 8.5250005 294.330268079022 1.04689075 0 0 0
7081 2 15.3450009 288.424004210489 1.04689075 0 0 0
7082 2 13.640017850001 291.37715091048904 1.04689075 0 0 0
7083 2 11.935017750001 294.330268079022 1.04689075 0 0 0
7084 2 15.3450009 294.330268079022 1.04689075 0 0 0
7085 1 18.7550011 266.767604920978 1.04689075 0 0 0
7086 1 17.050001 269.720722089511 1.04689075 0 0 0
7087 1 22.164984249999 266.767604920978 1.04689075 0 0 0
7088 1 20.459984149999 269.720722089511 1.04689075 0 0 0
7089 1 18.7550011 272.673868789511 1.04689075 0 0 0
7090 1 17.050001 275.627045020978 1.04689075 0 0 0
7091 1 25.574984449999 266.767604920978 1.04689075 0 0 0
7092 1 23.8700014 269.720722089511 1.04689075 0 0 0
7093 1 22.164984249999 272.673868789511 1.04689075 0 0 0
7094 1 20.459984149999 275.627045020978 1.04689075 0 0 0
7095 2 30.690018850001 291.37715091048904 1.04689075 0 0 0
7096 1 28.984984649999 266.767604920978 1.04689075 0 0 0
7097 1 27.2800016 269.720722089511 1.04689075 0 0 0
7098 1 25.574984449999 272.673868789511 1.04689075 0 0 0
7099 1 23.8700014 275.627045020978 1.04689075 0 0 0
7100 1 22.164984249999 278.58016218951104 1.04689075 0 0 0
7101 1 32.394984849999 266.767604920978 1.04689075 0 0 0
7102 1 30.689984749999 269.720722089511 1.04689075 0 0 0
7103 1 28.984984649999 272.673868789511 1.04689075 0 0 0
7104 1 27.2800016 275.627045020978 1.04689075 0 0 0
7105 1 25.574984449999 278.58016218951104 1.04689075 0 0 0
7106 2 17.050001 267.751977310489 1.04689075 0 0 0
7107 2 20.4600012 267.751977310489 1.04689075 0 0 0
7108 2 18.755018150001 270.705094479022 1.04689075 0 0 0
7109 2 17.050001 273.658241179022 1.04689075 0 0 0
7110 2 23.8700014 267.751977310489 1.04689075 0 0 0
7111 2 22.165018350001 270.705094479022 1.04689075 0 0 0
7112 2 20.4600012 273.658241179022 1.04689075 0 0 0
7113 2 18.755018150001 276.611417410489 1.04689075 0 0 0
7114 2 32.3950019 288.424004210489 1.04689075 0 0 0
7115 2 27.280018650001 267.751977310489 1.04689075 0 0 0
7116 2 25.5750015 270.705094479022 1.04689075 0 0 0
7117 2 23.8700014 273.658241179022 1.04689075 0 0 0
7118 2 22.165018350001 276.611417410489 1.04689075 0 0 0
7119 2 20.4600012 279.564534579022 1.04689075 0 0 0
7120 2 30.690018850001 267.751977310489 1.04689075 0 0 0
7121 2 28.985018750001 270.705094479022 1.04689075 0 0 0
7122 2 27.280018650001 273.658241179022 1.04689075 0 0 0
7123 2 25.5750015 276.611417410489 1.04689075 0 0 0
7124 2 23.8700014 279.564534579022 1.04689075 0 0 0
7125 2 25.5750015 294.330268079022 1.04689075 0 0 0
7126 1 20.459984149999 281.533338420978 1.04689075 0 0 0
7127 1 18.7550011 284.486455589511 1.04689075 0 0 0
7128 1 17.050001 287.439602289511 1.04689075 0 0 0
7129 1 23.8700014 281.533338420978 1.04689075 0 0 0
7130 1 22.164984249999 284.486455589511 1.04689075 0 0 0
7131 1 20.459984149999 287.439602289511 1.04689075 0 0 0
7132 1 18.7550011 290.392748989511 1.04689075 0 0 0
7133 1 17.050001 293.345925220978 1.04689075 0 0 0
7134 2 27.280018650001 291.37715091048904 1.04689075 0 0 0
7135 2 17.050001 285.470857510489 1.04689075 0 0 0
7136 2 22.165018350001 282.517681279022 1.04689075 0 0 0
7137 2 20.4600012 285.470857510489 1.04689075 0 0 0
7138 2 18.755018150001 288.424004210489 1.04689075 0 0 0
7139 2 17.050001 291.37715091048904 1.04689075 0 0 0
7140 1 32.394984849999 272.673868789511 1.04689075 0 0 0
7141 1 30.689984749999 275.627045020978 1.04689075 0 0 0
7142 1 28.984984649999 278.58016218951104 1.04689075 0 0 0
7143 1 32.394984849999 278.58016218951104 1.04689075 0 0 0
7144 2 32.3950019 270.705094479022 1.04689075 0 0 0
7145 2 30.690018850001 273.658241179022 1.04689075 0 0 0
7146 2 28.985018750001 276.611417410489 1.04689075 0 0 0
7147 2 27.280018650001 279.564534579022 1.04689075 0 0 0
7148 2 32.3950019 276.611417410489 1.04689075 0 0 0
7149 2 30.690018850001 279.564534579022 1.04689075 0 0 0
7150 1 27.2800016 281.533338420978 1.04689075 0 0 0
7151 1 25.574984449999 284.486455589511 1.04689075 0 0 0
7152 1 23.8700014 287.439602289511 1.04689075 0 0 0
7153 1 22.164984249999 290.392748989511 1.04689075 0 0 0
7154 1 20.459984149999 293.345925220978 1.04689075 0 0 0
7155 1 30.689984749999 281.533338420978 1.04689075 0 0 0
7156 1 28.984984649999 284.486455589511 1.04689075 0 0 0
7157 1 27.2800016 287.439602289511 1.04689075 0 0 0
7158 1 25.574984449999 290.392748989511 1.04689075 0 0 0
7159 1 23.8700014 293.345925220978 1.04689075 0 0 0
7160 1 32.394984849999 284.486455589511 1.04689075 0 0 0
7161 1 30.689984749999 287.439602289511 1.04689075 0 0 0
7162 1 28.984984649999 290.392748989511 1.04689075 0 0 0
7163 1 27.2800016 293.345925220978 1.04689075 0 0 0
7164 1 32.394984849999 290.392748989511 1.04689075 0 0 0
7165 1 30.689984749999 293.345925220978 1.04689075 0 0 0
7166 2 25.5750015 282.517681279022 1.04689075 0 0 0
7167 2 23.8700014 285.470857510489 1.04689075 0 0 0
7168 2 22.165018350001 288.424004210489 1.04689075 0 0 0
7169 2 20.4600012 291.37715091048904 1.04689075 0 0 0
7170 2 18.755018150001 294.330268079022 1.04689075 0 0 0
7171 2 28.985018750001 282.517681279022 1.04689075 0 0 0
7172 2 27.280018650001 285.470857510489 1.04689075 0 0 0
7173 2 25.5750015 288.424004210489 1.04689075 0 0 0
7174 2 23.8700014 291.37715091048904 1.04689075 0 0 0
7175 2 22.165018350001 294.330268079022 1.04689075 0 0 0
7176 2 32.3950019 282.517681279022 1.04689075 0 0 0
7177 2 30.690018850001 285.470857510489 1.04689075 0 0 0
7178 2 28.985018750001 288.424004210489 1.04689075 0 0 0
7761 1 1.7050001 296.29907192097795 1.04689075 0 0 0
7762 1 0 299.252189089511 1.04689075 0 0 0
7763 1 5.114983249999 296.29907192097795 1.04689075 0 0 0
7764 1 3.409983149999 299.252189089511 1.04689075 0 0 0
7765 1 1.7050001 302.20533578951097 1.04689075 0 0 0
7766 1 0 305.158512020978 1.04689075 0 0 0
7767 1 8.524983449999 296.29907192097795 1.04689075 0 0 0
7768 1 6.8200004 299.252189089511 1.04689075 0 0 0
7769 1 5.114983249999 302.20533578951097 1.04689075 0 0 0
7770 1 3.409983149999 305.158512020978 1.04689075 0 0 0
7771 1 1.7050001 308.11162918951095 1.04689075 0 0 0
7772 1 11.934983649999 296.29907192097795 1.04689075 0 0 0
7773 1 10.2300006 299.252189089511 1.04689075 0 0 0
7774 1 8.524983449999 302.20533578951097 1.04689075 0 0 0
7775 1 6.8200004 305.158512020978 1.04689075 0 0 0
7776 1 5.114983249999 308.11162918951095 1.04689075 0 0 0
7777 1 15.344983849999 296.29907192097795 1.04689075 0 0 0
7778 1 13.639983749999 299.252189089511 1.04689075 0 0 0
7779 1 11.934983649999 302.20533578951097 1.04689075 0 0 0
7780 1 10.2300006 305.158512020978 1.04689075 0 0 0
7781 1 8.524983449999 308.11162918951095 1.04689075 0 0 0
7782 2 0 297.28344431048896 1.04689075 0 0 0
7783 2 3.4100002 297.28344431048896 1.04689075 0 0 0
7784 2 1.705017150001 300.236561479022 1.04689075 0 0 0
7785 2 0 303.189708179022 1.04689075 0 0 0
7786 2 6.8200004 297.28344431048896 1.04689075 0 0 0
7787 2 5.115017350001 300.236561479022 1.04689075 0 0 0
7788 2 3.4100002 303.189708179022 1.04689075 0 0 0
7789 2 1.705017150001 306.142884410489 1.04689075 0 0 0
7790 2 0 309.09600157902196 1.04689075 0 0 0
7791 2 10.230017650001 297.28344431048896 1.04689075 0 0 0
7792 2 8.5250005 300.236561479022 1.04689075 0 0 0
7793 2 6.8200004 303.189708179022 1.04689075 0 0 0
7794 2 5.115017350001 306.142884410489 1.04689075 0 0 0
7795 2 3.4100002 309.09600157902196 1.04689075 0 0 0
7796 2 13.640017850001 297.28344431048896 1.04689075 0 0 0
7797 2 11.935017750001 300.236561479022 1.04689075 0 0 0
7798 2 10.230017650001 303.189708179022 1.04689075 0 0 0
7799 2 8.5250005 306.142884410489 1.04689075 0 0 0
7800 2 6.8200004 309.09600157902196 1.04689075 0 0 0
7801 1 0 311.06480542097796 1.04689075 0 0 0
7802 1 3.409983149999 311.06480542097796 1.04689075 0 0 0
7803 1 1.7050001 314.017922589511 1.04689075 0 0 0
7804 1 0 316.971069289511 1.04689075 0 0 0
7805 1 6.8200004 311.06480542097796 1.04689075 0 0 0
7806 1 5.114983249999 314.017922589511 1.04689075 0 0 0
7807 1 3.409983149999 316.971069289511 1.04689075 0 0 0
7808 1 1.7050001 319.92421598951097 1.04689075 0 0 0
7809 1 0 322.877392220978 1.04689075 0 0 0
7810 2 1.705017150001 312.049148279022 1.04689075 0 0 0
7811 2 0 315.00232451048896 1.04689075 0 0 0
7812 2 5.115017350001 312.049148279022 1.04689075 0 0 0
7813 2 3.4100002 315.00232451048896 1.04689075 0 0 0
7814 2 1.705017150001 317.95547121048895 1.04689075 0 0 0
7815 2 0 320.908617910489 1.04689075 0 0 0
7816 1 15.344983849999 302.20533578951097 1.04689075 0 0 0
7817 1 13.639983749999 305.158512020978 1.04689075 0 0 0
7818 1 11.934983649999 308.11162918951095 1.04689075 0 0 0
7819 2 32.3950019 323.86173507902197 1.04689075 0 0 0
7820 2 15.3450009 300.236561479022 1.04689075 0 0 0
7821 2 13.640017850001 303.189708179022 1.04689075 0 0 0
7822 2 11.935017750001 306.142884410489 1.04689075 0 0 0
7823 2 10.230017650001 309.09600157902196 1.04689075 0 0 0
7824 2 15.3450009 306.142884410489 1.04689075 0 0 0
7825 2 13.640017850001 309.09600157902196 1.04689075 0 0 0
7826 1 10.2300006 311.06480542097796 1.04689075 0 0 0
7827 1 8.524983449999 314.017922589511 1.04689075 0 0 0
7828 1 6.8200004 316.971069289511 1.04689075 0 0 0
7829 1 5.114983249999 319.92421598951097 1.04689075 0 0 0
7830 1 3.409983149999 322.877392220978 1.04689075 0 0 0
7831 1 13.639983749999 311.06480542097796 1.04689075 0 0 0
7832 1 11.934983649999 314.017922589511 1.04689075 0 0 0
7833 1 10.2300006 316.971069289511 1.04689075 0 0 0
7834 1 8.524983449999 319.92421598951097 1.04689075 0 0 0
7835 1 6.8200004 322.877392220978 1.04689075 0 0 0
7836 1 15.344983849999 314.017922589511 1.04689075 0 0 0
7837 1 13.639983749999 316.971069289511 1.04689075 0 0 0
7838 1 11.934983649999 319.92421598951097 1.04689075 0 0 0
7839 1 10.2300006 322.877392220978 1.04689075 0 0 0
7840 1 15.344983849999 319.92421598951097 1.04689075 0 0 0
7841 1 13.639983749999 322.877392220978 1.04689075 0 0 0
7842 2 8.5250005 312.049148279022 1.04689075 0 0 0
7843 2 6.8200004 315.00232451048896 1.04689075 0 0 0
7844 2 5.115017350001 317.95547121048895 1.04689075 0 0 0
7845 2 3.4100002 320.908617910489 1.04689075 0 0 0
7846 2 1.705017150001 323.86173507902197 1.04689075 0 0 0
7847 2 11.935017750001 312.049148279022 1.04689075 0 0 0
7848 2 10.230017650001 315.00232451048896 1.04689075 0 0 0
7849 2 8.5250005 317.95547121048895 1.04689075 0 0 0
7850 2 6.8200004 320.908617910489 1.04689075 0 0 0
7851 2 5.115017350001 323.86173507902197 1.04689075 0 0 0
7852 2 28.985018750001 323.86173507902197 1.04689075 0 0 0
7853 2 13.640017850001 315.00232451048896 1.04689075 0 0 0
7854 2 11.935017750001 317.95547121048895 1.04689075 0 0 0
7855 2 10.230017650001 320.908617910489 1.04689075 0 0 0
7856 2 8.5250005 323.86173507902197 1.04689075 0 0 0
7857 2 15.3450009 317.95547121048895 1.04689075 0 0 0
7858 2 13.640017850001 320.908617910489 1.04689075 0 0 0
7859 2 11.935017750001 323.86173507902197 1.04689075 0 0 0
7860 2 15.3450009 323.86173507902197 1.04689075 0 0 0
7861 1 18.7550011 296.29907192097795 1.04689075 0 0 0
7862 1 17.050001 299.252189089511 1.04689075 0 0 0
7863 1 22.164984249999 296.29907192097795 1.04689075 0 0 0
7864 1 20.459984149999 299.252189089511 1.04689075 0 0 0
7865 1 18.7550011 302.20533578951097 1.04689075 0 0 0
7866 1 17.050001 305.158512020978 1.04689075 0 0 0
7867 1 25.574984449999 296.29907192097795 1.04689075 0 0 0
7868 1 23.8700014 299.252189089511 1.04689075 0 0 0
7869 1 22.164984249999 302.20533578951097 1.04689075 0 0 0
7870 1 20.459984149999 305.158512020978 1.04689075 0 0 0
7871 2 30.690018850001 320.908617910489 1.04689075 0 0 0
7872 1 28.984984649999 296.29907192097795 1.04689075 0 0 0
7873 1 27.2800016 299.252189089511 1.04689075 0 0 0
7874 1 25.574984449999 302.20533578951097 1.04689075 0 0 0
7875 1 23.8700014 305.158512020978 1.04689075 0 0 0
7876 1 22.164984249999 308.11162918951095 1.04689075 0 0 0
7877 1 32.394984849999 296.29907192097795 1.04689075 0 0 0
7878 1 30.689984749999 299.252189089511 1.04689075 0 0 0
7879 1 28.984984649999 302.20533578951097 1.04689075 0 0 0
7880 1 27.2800016 305.158512020978 1.04689075 0 0 0
7881 1 25.574984449999 308.11162918951095 1.04689075 0 0 0
7882 2 17.050001 297.28344431048896 1.04689075 0 0 0
7883 2 20.4600012 297.28344431048896 1.04689075 0 0 0
7884 2 18.755018150001 300.236561479022 1.04689075 0 0 0
7885 2 17.050001 303.189708179022 1.04689075 0 0 0
7886 2 23.8700014 297.28344431048896 1.04689075 0 0 0
7887 2 22.165018350001 300.236561479022 1.04689075 0 0 0
7888 2 20.4600012 303.189708179022 1.04689075 0 0 0
7889 2 18.755018150001 306.142884410489 1.04689075 0 0 0
7890 2 32.3950019 317.95547121048895 1.04689075 0 0 0
7891 2 27.280018650001 297.28344431048896 1.04689075 0 0 0
7892 2 25.5750015 300.236561479022 1.04689075 0 0 0
7893 2 23.8700014 303.189708179022 1.04689075 0 0 0
7894 2 22.165018350001 306.142884410489 1.04689075 0 0 0
7895 2 20.4600012 309.09600157902196 1.04689075 0 0 0
7896 2 30.690018850001 297.28344431048896 1.04689075 0 0 0
7897 2 28.985018750001 300.236561479022 1.04689075 0 0 0
7898 2 27.280018650001 303.189708179022 1.04689075 0 0 0
7899 2 25.5750015 306.142884410489 1.04689075 0 0 0
7900 2 23.8700014 309.09600157902196 1.04689075 0 0 0
7901 2 25.5750015 323.86173507902197 1.04689075 0 0 0
7902 1 20.459984149999 311.06480542097796 1.04689075 0 0 0
7903 1 18.7550011 314.017922589511 1.04689075 0 0 0
7904 1 17.050001 316.971069289511 1.04689075 0 0 0
7905 1 23.8700014 311.06480542097796 1.04689075 0 0 0
7906 1 22.164984249999 314.017922589511 1.04689075 0 0 0
7907 1 20.459984149999 316.971069289511 1.04689075 0 0 0
7908 1 18.7550011 319.92421598951097 1.04689075 0 0 0
7909 1 17.050001 322.877392220978 1.04689075 0 0 0
7910 2 27.280018650001 320.908617910489 1.04689075 0 0 0
7911 2 17.050001 315.00232451048896 1.04689075 0 0 0
7912 2 22.165018350001 312.049148279022 1.04689075 0 0 0
7913 2 20.4600012 315.00232451048896 1.04689075 0 0 0
7914 2 18.755018150001 317.95547121048895 1.04689075 0 0 0
7915 2 17.050001 320.908617910489 1.04689075 0 0 0
7916 1 32.394984849999 302.20533578951097 1.04689075 0 0 0
7917 1 30.689984749999 305.158512020978 1.04689075 0 0 0
7918 1 28.984984649999 308.11162918951095 1.04689075 0 0 0
7919 1 32.394984849999 308.11162918951095 1.04689075 0 0 0
7920 2 32.3950019 300.236561479022 1.04689075 0 0 0
7921 2 30.690018850001 303.189708179022 1.04689075 0 0 0
7922 2 28.985018750001 306.142884410489 1.04689075 0 0 0
7923 2 27.280018650001 309.09600157902196 1.04689075 0 0 0
7924 2 32.3950019 306.142884410489 1.04689075 0 0 0
7925 2 30.690018850001 309.09600157902196 1.04689075 0 0 0
7926 1 27.2800016 311.06480542097796 1.04689075 0 0 0
7927 1 25.574984449999 314.017922589511 1.04689075 0 0 0
7928 1 23.8700014 316.971069289511 1.04689075 0 0 0
7929 1 22.164984249999 319.92421598951097 1.04689075 0 0 0
7930 1 20.459984149999 322.877392220978 1.04689075 0 0 0
7931 1 30.689984749999 311.06480542097796 1.04689075 0 0 0
7932 1 28.984984649999 314.017922589511 1.04689075 0 0 0
7933 1 27.2800016 316.971069289511 1.04689075 0 0 0
7934 1 25.574984449999 319.92421598951097 1.04689075 0 0 0
7935 1 23.8700014 322.877392220978 1.04689075 0 0 0
7936 1 32.394984849999 314.017922589511 1.04689075 0 0 0
7937 1 30.689984749999 316.971069289511 1.04689075 0 0 0
7938 1 28.984984649999 319.92421598951097 1.04689075 0 0 0
7939 1 27.2800016 322.877392220978 1.04689075 0 0 0
7940 1 32.394984849999 319.92421598951097 1.04689075 0 0 0
7941 1 30.689984749999 322.877392220978 1.04689075 0 0 0
7942 2 25.5750015 312.049148279022 1.04689075 0 0 0
7943 2 23.8700014 315.00232451048896 1.04689075 0 0 0
7944 2 22.165018350001 317.95547121048895 1.04689075 0 0 0
7945 2 20.4600012 320.908617910489 1.04689075 0 0 0
7946 2 18.755018150001 323.86173507902197 1.04689075 0 0 0
7947 2 28.985018750001 312.049148279022 1.04689075 0 0 0
7948 2 27.280018650001 315.00232451048896 1.04689075 0 0 0
7949 2 25.5750015 317.95547121048895 1.04689075 0 0 0
7950 2 23.8700014 320.908617910489 1.04689075 0 0 0
7951 2 22.165018350001 323.86173507902197 1.04689075 0 0 0
7952 2 32.3950019 312.049148279022 1.04689075 0 0 0
7953 2 30.690018850001 315.00232451048896 1.04689075 0 0 0
7954 2 28.985018750001 317.95547121048895 1.04689075 0 0 0
195 1 35.8050021 0.984401920978 1.04689075 0 0 0
196 1 34.100002 3.937519089511 1.04689075 0 0 0
197 1 39.214985249999 0.984401920978 1.04689075 0 0 0
198 1 37.509985149999004 3.937519089511 1.04689075 0 0 0
199 1 35.8050021 6.890665789511 1.04689075 0 0 0
200 1 34.100002 9.843842020978 1.04689075 0 0 0
201 1 42.624985449999 0.984401920978 1.04689075 0 0 0
202 1 40.9200024 3.937519089511 1.04689075 0 0 0
203 1 39.214985249999 6.890665789511 1.04689075 0 0 0
204 1 37.509985149999004 9.843842020978 1.04689075 0 0 0
205 1 35.8050021 12.796959189511 1.04689075 0 0 0
206 1 46.034985649999 0.984401920978 1.04689075 0 0 0
207 1 44.3300026 3.937519089511 1.04689075 0 0 0
208 1 42.624985449999 6.890665789511 1.04689075 0 0 0
209 1 40.9200024 9.843842020978 1.04689075 0 0 0
210 1 39.214985249999 12.796959189511 1.04689075 0 0 0
211 1 49.444985849999 0.984401920978 1.04689075 0 0 0
212 1 47.73998574999901 3.937519089511 1.04689075 0 0 0
213 1 46.034985649999 6.890665789511 1.04689075 0 0 0
214 1 44.3300026 9.843842020978 1.04689075 0 0 0
215 1 42.624985449999 12.796959189511 1.04689075 0 0 0
216 2 34.100002 1.968774310489 1.04689075 0 0 0
217 2 37.5100022 1.968774310489 1.04689075 0 0 0
218 2 35.805019150001 4.921891479022 1.04689075 0 0 0
219 2 34.100002 7.875038179022 1.04689075 0 0 0
220 2 40.9200024 1.968774310489 1.04689075 0 0 0
221 2 39.215019350001 4.921891479022 1.04689075 0 0 0
222 2 37.5100022 7.875038179022 1.04689075 0 0 0
223 2 35.805019150001 10.828214410489 1.04689075 0 0 0
224 2 34.100002 13.781331579022 1.04689075 0 0 0
225 2 44.330019650001006 1.968774310489 1.04689075 0 0 0
226 2 42.62500250000001 4.921891479022 1.04689075 0 0 0
227 2 40.9200024 7.875038179022 1.04689075 0 0 0
228 2 39.215019350001 10.828214410489 1.04689075 0 0 0
229 2 37.5100022 13.781331579022 1.04689075 0 0 0
230 2 47.740019850001005 1.968774310489 1.04689075 0 0 0
231 2 46.035019750001005 4.921891479022 1.04689075 0 0 0
232 2 44.330019650001006 7.875038179022 1.04689075 0 0 0
233 2 42.62500250000001 10.828214410489 1.04689075 0 0 0
234 2 40.9200024 13.781331579022 1.04689075 0 0 0
235 1 34.100002 15.750135420978 1.04689075 0 0 0
236 1 37.509985149999004 15.750135420978 1.04689075 0 0 0
237 1 35.8050021 18.703252589511 1.04689075 0 0 0
238 1 34.100002 21.656399289511 1.04689075 0 0 0
239 1 40.9200024 15.750135420978 1.04689075 0 0 0
240 1 39.214985249999 18.703252589511 1.04689075 0 0 0
241 1 37.509985149999004 21.656399289511 1.04689075 0 0 0
242 1 35.8050021 24.609545989511 1.04689075 0 0 0
243 1 34.100002 27.562722220978 1.04689075 0 0 0
244 2 35.805019150001 16.734478279022 1.04689075 0 0 0
245 2 34.100002 19.687654510489 1.04689075 0 0 0
246 2 39.215019350001 16.734478279022 1.04689075 0 0 0
247 2 37.5100022 19.687654510489 1.04689075 0 0 0
248 2 35.805019150001 22.640801210489 1.04689075 0 0 0
249 2 34.100002 25.593947910489 1.04689075 0 0 0
250 1 49.444985849999 6.890665789511 1.04689075 0 0 0
251 1 47.73998574999901 9.843842020978 1.04689075 0 0 0
252 1 46.034985649999 12.796959189511 1.04689075 0 0 0
253 2 66.4950039 28.547065079022 1.04689075 0 0 0
254 2 49.445002900000006 4.921891479022 1.04689075 0 0 0
255 2 47.740019850001005 7.875038179022 1.04689075 0 0 0
256 2 46.035019750001005 10.828214410489 1.04689075 0 0 0
257 2 44.330019650001006 13.781331579022 1.04689075 0 0 0
258 2 49.445002900000006 10.828214410489 1.04689075 0 0 0
259 2 47.740019850001005 13.781331579022 1.04689075 0 0 0
260 1 44.3300026 15.750135420978 1.04689075 0 0 0
261 1 42.624985449999 18.703252589511 1.04689075 0 0 0
262 1 40.9200024 21.656399289511 1.04689075 0 0 0
263 1 39.214985249999 24.609545989511 1.04689075 0 0 0
264 1 37.509985149999004 27.562722220978 1.04689075 0 0 0
265 1 47.73998574999901 15.750135420978 1.04689075 0 0 0
266 1 46.034985649999 18.703252589511 1.04689075 0 0 0
267 1 44.3300026 21.656399289511 1.04689075 0 0 0
268 1 42.624985449999 24.609545989511 1.04689075 0 0 0
269 1 40.9200024 27.562722220978 1.04689075 0 0 0
270 1 49.444985849999 18.703252589511 1.04689075 0 0 0
271 1 47.73998574999901 21.656399289511 1.04689075 0 0 0
272 1 46.034985649999 24.609545989511 1.04689075 0 0 0
273 1 44.3300026 27.562722220978 1.04689075 0 0 0
274 1 49.444985849999 24.609545989511 1.04689075 0 0 0
275 1 47.73998574999901 27.562722220978 1.04689075 0 0 0
276 2 42.62500250000001 16.734478279022 1.04689075 0 0 0
277 2 40.9200024 19.687654510489 1.04689075 0 0 0
278 2 39.215019350001 22.640801210489 1.04689075 0 0 0
279 2 37.5100022 25.593947910489 1.04689075 0 0 0
280 2 35.805019150001 28.547065079022 1.04689075 0 0 0
281 2 46.035019750001005 16.734478279022 1.04689075 0 0 0
282 2 44.330019650001006 19.687654510489 1.04689075 0 0 0
283 2 42.62500250000001 22.640801210489 1.04689075 0 0 0
284 2 40.9200024 25.593947910489 1.04689075 0 0 0
285 2 39.215019350001 28.547065079022 1.04689075 0 0 0
286 2 63.08502075000101 28.547065079022 1.04689075 0 0 0
287 2 47.740019850001005 19.687654510489 1.04689075 0 0 0
288 2 46.035019750001005 22.640801210489 1.04689075 0 0 0
289 2 44.330019650001006 25.593947910489 1.04689075 0 0 0
290 2 42.62500250000001 28.547065079022 1.04689075 0 0 0
291 2 49.445002900000006 22.640801210489 1.04689075 0 0 0
292 2 47.740019850001005 25.593947910489 1.04689075 0 0 0
293 2 46.035019750001005 28.547065079022 1.04689075 0 0 0
294 2 49.445002900000006 28.547065079022 1.04689075 0 0 0
295 1 52.855003100000005 0.984401920978 1.04689075 0 0 0
296 1 51.150003000000005 3.937519089511 1.04689075 0 0 0
297 1 56.264986249999005 0.984401920978 1.04689075 0 0 0
298 1 54.559986149999006 3.937519089511 1.04689075 0 0 0
299 1 52.855003100000005 6.890665789511 1.04689075 0 0 0
300 1 51.150003000000005 9.843842020978 1.04689075 0 0 0
301 1 59.674986449999004 0.984401920978 1.04689075 0 0 0
302 1 57.9700034 3.937519089511 1.04689075 0 0 0
303 1 56.264986249999005 6.890665789511 1.04689075 0 0 0
304 1 54.559986149999006 9.843842020978 1.04689075 0 0 0
305 2 64.790020850001 25.593947910489 1.04689075 0 0 0
306 1 63.084986649999 0.984401920978 1.04689075 0 0 0
307 1 61.3800036 3.937519089511 1.04689075 0 0 0
308 1 59.674986449999004 6.890665789511 1.04689075 0 0 0
309 1 57.9700034 9.843842020978 1.04689075 0 0 0
310 1 56.264986249999005 12.796959189511 1.04689075 0 0 0
311 1 66.49498684999901 0.984401920978 1.04689075 0 0 0
312 1 64.789986749999 3.937519089511 1.04689075 0 0 0
313 1 63.084986649999 6.890665789511 1.04689075 0 0 0
314 1 61.3800036 9.843842020978 1.04689075 0 0 0
315 1 59.674986449999004 12.796959189511 1.04689075 0 0 0
316 2 51.150003000000005 1.968774310489 1.04689075 0 0 0
317 2 54.560003200000004 1.968774310489 1.04689075 0 0 0
318 2 52.855020150001 4.921891479022 1.04689075 0 0 0
319 2 51.150003000000005 7.875038179022 1.04689075 0 0 0
320 2 57.9700034 1.968774310489 1.04689075 0 0 0
321 2 56.265020350001 4.921891479022 1.04689075 0 0 0
322 2 54.560003200000004 7.875038179022 1.04689075 0 0 0
323 2 52.855020150001 10.828214410489 1.04689075 0 0 0
324 2 66.4950039 22.640801210489 1.04689075 0 0 0
325 2 61.380020650001 1.968774310489 1.04689075 0 0 0
326 2 59.6750035 4.921891479022 1.04689075 0 0 0
327 2 57.9700034 7.875038179022 1.04689075 0 0 0
328 2 56.265020350001 10.828214410489 1.04689075 0 0 0
329 2 54.560003200000004 13.781331579022 1.04689075 0 0 0
330 2 64.790020850001 1.968774310489 1.04689075 0 0 0
331 2 63.08502075000101 4.921891479022 1.04689075 0 0 0
332 2 61.380020650001 7.875038179022 1.04689075 0 0 0
333 2 59.6750035 10.828214410489 1.04689075 0 0 0
334 2 57.9700034 13.781331579022 1.04689075 0 0 0
335 2 59.6750035 28.547065079022 1.04689075 0 0 0
336 1 54.559986149999006 15.750135420978 1.04689075 0 0 0
337 1 52.855003100000005 18.703252589511 1.04689075 0 0 0
338 1 51.150003000000005 21.656399289511 1.04689075 0 0 0
339 1 57.9700034 15.750135420978 1.04689075 0 0 0
340 1 56.264986249999005 18.703252589511 1.04689075 0 0 0
341 1 54.559986149999006 21.656399289511 1.04689075 0 0 0
342 1 52.855003100000005 24.609545989511 1.04689075 0 0 0
343 1 51.150003000000005 27.562722220978 1.04689075 0 0 0
344 2 61.380020650001 25.593947910489 1.04689075 0 0 0
345 2 51.150003000000005 19.687654510489 1.04689075 0 0 0
346 2 56.265020350001 16.734478279022 1.04689075 0 0 0
347 2 54.560003200000004 19.687654510489 1.04689075 0 0 0
348 2 52.855020150001 22.640801210489 1.04689075 0 0 0
349 2 51.150003000000005 25.593947910489 1.04689075 0 0 0
350 1 66.49498684999901 6.890665789511 1.04689075 0 0 0
351 1 64.789986749999 9.843842020978 1.04689075 0 0 0
352 1 63.084986649999 12.796959189511 1.04689075 0 0 0
353 1 66.49498684999901 12.796959189511 1.04689075 0 0 0
354 2 66.4950039 4.921891479022 1.04689075 0 0 0
355 2 64.790020850001 7.875038179022 1.04689075 0 0 0
356 2 63.08502075000101 10.828214410489 1.04689075 0 0 0
357 2 61.380020650001 13.781331579022 1.04689075 0 0 0
358 2 66.4950039 10.828214410489 1.04689075 0 0 0
359 2 64.790020850001 13.781331579022 1.04689075 0 0 0
360 1 61.3800036 15.750135420978 1.04689075 0 0 0
361 1 59.674986449999004 18.703252589511 1.04689075 0 0 0
362 1 57.9700034 21.656399289511 1.04689075 0 0 0
363 1 56.264986249999005 24.609545989511 1.04689075 0 0 0
364 1 54.559986149999006 27.562722220978 1.04689075 0 0 0
365 1 64.789986749999 15.750135420978 1.04689075 0 0 0
366 1 63.084986649999 18.703252589511 1.04689075 0 0 0
367 1 61.3800036 21.656399289511 1.04689075 0 0 0
368 1 59.674986449999004 24.609545989511 1.04689075 0 0 0
369 1 57.9700034 27.562722220978 1.04689075 0 0 0
370 1 66.49498684999901 18.703252589511 1.04689075 0 0 0
371 1 64.789986749999 21.656399289511 1.04689075 0 0 0
372 1 63.084986649999 24.609545989511 1.04689075 0 0 0
373 1 61.3800036 27.562722220978 1.04689075 0 0 0
374 1 66.49498684999901 24.609545989511 1.04689075 0 0 0
375 1 64.789986749999 27.562722220978 1.04689075 0 0 0
376 2 59.6750035 16.734478279022 1.04689075 0 0 0
377 2 57.9700034 19.687654510489 1.04689075 0 0 0
378 2 56.265020350001 22.640801210489 1.04689075 0 0 0
379 2 54.560003200000004 25.593947910489 1.04689075 0 0 0
380 2 52.855020150001 28.547065079022 1.04689075 0 0 0
381 2 63.08502075000101 16.734478279022 1.04689075 0 0 0
382 2 61.380020650001 19.687654510489 1.04689075 0 0 0
383 2 59.6750035 22.640801210489 1.04689075 0 0 0
384 2 57.9700034 25.593947910489 1.04689075 0 0 0
385 2 56.265020350001 28.547065079022 1.04689075 0 0 0
386 2 66.4950039 16.734478279022 1.04689075 0 0 0
387 2 64.790020850001 19.687654510489 1.04689075 0 0 0
388 2 63.08502075000101 22.640801210489 1.04689075 0 0 0
971 1 35.8050021 30.515868920978 1.04689075 0 0 0
972 1 34.100002 33.468986089511 1.04689075 0 0 0
973 1 39.214985249999 30.515868920978 1.04689075 0 0 0
974 1 37.509985149999004 33.468986089511 1.04689075 0 0 0
975 1 35.8050021 36.422132789511 1.04689075 0 0 0
976 1 34.100002 39.375309020978 1.04689075 0 0 0
977 1 42.624985449999 30.515868920978 1.04689075 0 0 0
978 1 40.9200024 33.468986089511 1.04689075 0 0 0
979 1 39.214985249999 36.422132789511 1.04689075 0 0 0
980 1 37.509985149999004 39.375309020978 1.04689075 0 0 0
981 1 35.8050021 42.328426189511 1.04689075 0 0 0
982 1 46.034985649999 30.515868920978 1.04689075 0 0 0
983 1 44.3300026 33.468986089511 1.04689075 0 0 0
984 1 42.624985449999 36.422132789511 1.04689075 0 0 0
985 1 40.9200024 39.375309020978 1.04689075 0 0 0
986 1 39.214985249999 42.328426189511 1.04689075 0 0 0
987 1 49.444985849999 30.515868920978 1.04689075 0 0 0
988 1 47.73998574999901 33.468986089511 1.04689075 0 0 0
989 1 46.034985649999 36.422132789511 1.04689075 0 0 0
990 1 44.3300026 39.375309020978 1.04689075 0 0 0
991 1 42.624985449999 42.328426189511 1.04689075 0 0 0
992 2 34.100002 31.500241310489 1.04689075 0 0 0
993 2 37.5100022 31.500241310489 1.04689075 0 0 0
994 2 35.805019150001 34.453358479022 1.04689075 0 0 0
995 2 34.100002 37.406505179022 1.04689075 0 0 0
996 2 40.9200024 31.500241310489 1.04689075 0 0 0
997 2 39.215019350001 34.453358479022 1.04689075 0 0 0
998 2 37.5100022 37.406505179022 1.04689075 0 0 0
999 2 35.805019150001 40.359681410489 1.04689075 0 0 0
1000 2 34.100002 43.312798579022 1.04689075 0 0 0
1001 2 44.330019650001006 31.500241310489 1.04689075 0 0 0
1002 2 42.62500250000001 34.453358479022 1.04689075 0 0 0
1003 2 40.9200024 37.406505179022 1.04689075 0 0 0
1004 2 39.215019350001 40.359681410489 1.04689075 0 0 0
1005 2 37.5100022 43.312798579022 1.04689075 0 0 0
1006 2 47.740019850001005 31.500241310489 1.04689075 0 0 0
1007 2 46.035019750001005 34.453358479022 1.04689075 0 0 0
1008 2 44.330019650001006 37.406505179022 1.04689075 0 0 0
1009 2 42.62500250000001 40.359681410489 1.04689075 0 0 0
1010 2 40.9200024 43.312798579022 1.04689075 0 0 0
1011 1 34.100002 45.281602420978 1.04689075 0 0 0
1012 1 37.509985149999004 45.281602420978 1.04689075 0 0 0
1013 1 35.8050021 48.234719589511 1.04689075 0 0 0
1014 1 34.100002 51.187866289511 1.04689075 0 0 0
1015 1 40.9200024 45.281602420978 1.04689075 0 0 0
1016 1 39.214985249999 48.234719589511 1.04689075 0 0 0
1017 1 37.509985149999004 51.187866289511 1.04689075 0 0 0
1018 1 35.8050021 54.141012989511 1.04689075 0 0 0
1019 1 34.100002 57.094189220977995 1.04689075 0 0 0
1020 2 35.805019150001 46.265945279022 1.04689075 0 0 0
1021 2 34.100002 49.219121510489 1.04689075 0 0 0
1022 2 39.215019350001 46.265945279022 1.04689075 0 0 0
1023 2 37.5100022 49.219121510489 1.04689075 0 0 0
1024 2 35.805019150001 52.172268210488994 1.04689075 0 0 0
1025 2 34.100002 55.125414910489 1.04689075 0 0 0
1026 1 49.444985849999 36.422132789511 1.04689075 0 0 0
1027 1 47.73998574999901 39.375309020978 1.04689075 0 0 0
1028 1 46.034985649999 42.328426189511 1.04689075 0 0 0
1029 2 66.4950039 58.078532079022 1.04689075 0 0 0
1030 2 49.445002900000006 34.453358479022 1.04689075 0 0 0
1031 2 47.740019850001005 37.406505179022 1.04689075 0 0 0
1032 2 46.035019750001005 40.359681410489 1.04689075 0 0 0
1033 2 44.330019650001006 43.312798579022 1.04689075 0 0 0
1034 2 49.445002900000006 40.359681410489 1.04689075 0 0 0
1035 2 47.740019850001005 43.312798579022 1.04689075 0 0 0
1036 1 44.3300026 45.281602420978 1.04689075 0 0 0
1037 1 42.624985449999 48.234719589511 1.04689075 0 0 0
1038 1 40.9200024 51.187866289511 1.04689075 0 0 0
1039 1 39.214985249999 54.141012989511 1.04689075 0 0 0
1040 1 37.509985149999004 57.094189220977995 1.04689075 0 0 0
1041 1 47.73998574999901 45.281602420978 1.04689075 0 0 0
1042 1 46.034985649999 48.234719589511 1.04689075 0 0 0
1043 1 44.3300026 51.187866289511 1.04689075 0 0 0
1044 1 42.624985449999 54.141012989511 1.04689075 0 0 0
1045 1 40.9200024 57.094189220977995 1.04689075 0 0 0
1046 1 49.444985849999 48.234719589511 1.04689075 0 0 0
1047 1 47.73998574999901 51.187866289511 1.04689075 0 0 0
1048 1 46.034985649999 54.141012989511 1.04689075 0 0 0
1049 1 44.3300026 57.094189220977995 1.04689075 0 0 0
1050 1 49.444985849999 54.141012989511 1.04689075 0 0 0
1051 1 47.73998574999901 57.094189220977995 1.04689075 0 0 0
1052 2 42.62500250000001 46.265945279022 1.04689075 0 0 0
1053 2 40.9200024 49.219121510489 1.04689075 0 0 0
1054 2 39.215019350001 52.172268210488994 1.04689075 0 0 0
1055 2 37.5100022 55.125414910489 1.04689075 0 0 0
1056 2 35.805019150001 58.078532079022 1.04689075 0 0 0
1057 2 46.035019750001005 46.265945279022 1.04689075 0 0 0
1058 2 44.330019650001006 49.219121510489 1.04689075 0 0 0
1059 2 42.62500250000001 52.172268210488994 1.04689075 0 0 0
1060 2 40.9200024 55.125414910489 1.04689075 0 0 0
1061 2 39.215019350001 58.078532079022 1.04689075 0 0 0
1062 2 63.08502075000101 58.078532079022 1.04689075 0 0 0
1063 2 47.740019850001005 49.219121510489 1.04689075 0 0 0
1064 2 46.035019750001005 52.172268210488994 1.04689075 0 0 0
1065 2 44.330019650001006 55.125414910489 1.04689075 0 0 0
1066 2 42.62500250000001 58.078532079022 1.04689075 0 0 0
1067 2 49.445002900000006 52.172268210488994 1.04689075 0 0 0
1068 2 47.740019850001005 55.125414910489 1.04689075 0 0 0
1069 2 46.035019750001005 58.078532079022 1.04689075 0 0 0
1070 2 49.445002900000006 58.078532079022 1.04689075 0 0 0
1071 1 52.855003100000005 30.515868920978 1.04689075 0 0 0
1072 1 51.150003000000005 33.468986089511 1.04689075 0 0 0
1073 1 56.264986249999005 30.515868920978 1.04689075 0 0 0
1074 1 54.559986149999006 33.468986089511 1.04689075 0 0 0
1075 1 52.855003100000005 36.422132789511 1.04689075 0 0 0
1076 1 51.150003000000005 39.375309020978 1.04689075 0 0 0
1077 1 59.674986449999004 30.515868920978 1.04689075 0 0 0
1078 1 57.9700034 33.468986089511 1.04689075 0 0 0
1079 1 56.264986249999005 36.422132789511 1.04689075 0 0 0
1080 1 54.559986149999006 39.375309020978 1.04689075 0 0 0
1081 2 64.790020850001 55.125414910489 1.04689075 0 0 0
1082 1 63.084986649999 30.515868920978 1.04689075 0 0 0
1083 1 61.3800036 33.468986089511 1.04689075 0 0 0
1084 1 59.674986449999004 36.422132789511 1.04689075 0 0 0
1085 1 57.9700034 39.375309020978 1.04689075 0 0 0
1086 1 56.264986249999005 42.328426189511 1.04689075 0 0 0
1087 1 66.49498684999901 30.515868920978 1.04689075 0 0 0
1088 1 64.789986749999 33.468986089511 1.04689075 0 0 0
1089 1 63.084986649999 36.422132789511 1.04689075 0 0 0
1090 1 61.3800036 39.375309020978 1.04689075 0 0 0
1091 1 59.674986449999004 42.328426189511 1.04689075 0 0 0
1092 2 51.150003000000005 31.500241310489 1.04689075 0 0 0
1093 2 54.560003200000004 31.500241310489 1.04689075 0 0 0
1094 2 52.855020150001 34.453358479022 1.04689075 0 0 0
1095 2 51.150003000000005 37.406505179022 1.04689075 0 0 0
1096 2 57.9700034 31.500241310489 1.04689075 0 0 0
1097 2 56.265020350001 34.453358479022 1.04689075 0 0 0
1098 2 54.560003200000004 37.406505179022 1.04689075 0 0 0
1099 2 52.855020150001 40.359681410489 1.04689075 0 0 0
1100 2 66.4950039 52.172268210488994 1.04689075 0 0 0
1101 2 61.380020650001 31.500241310489 1.04689075 0 0 0
1102 2 59.6750035 34.453358479022 1.04689075 0 0 0
1103 2 57.9700034 37.406505179022 1.04689075 0 0 0
1104 2 56.265020350001 40.359681410489 1.04689075 0 0 0
1105 2 54.560003200000004 43.312798579022 1.04689075 0 0 0
1106 2 64.790020850001 31.500241310489 1.04689075 0 0 0
1107 2 63.08502075000101 34.453358479022 1.04689075 0 0 0
1108 2 61.380020650001 37.406505179022 1.04689075 0 0 0
1109 2 59.6750035 40.359681410489 1.04689075 0 0 0
1110 2 57.9700034 43.312798579022 1.04689075 0 0 0
1111 2 59.6750035 58.078532079022 1.04689075 0 0 0
1112 1 54.559986149999006 45.281602420978 1.04689075 0 0 0
1113 1 52.855003100000005 48.234719589511 1.04689075 0 0 0
1114 1 51.150003000000005 51.187866289511 1.04689075 0 0 0
1115 1 57.9700034 45.281602420978 1.04689075 0 0 0
1116 1 56.264986249999005 48.234719589511 1.04689075 0 0 0
1117 1 54.559986149999006 51.187866289511 1.04689075 0 0 0
1118 1 52.855003100000005 54.141012989511 1.04689075 0 0 0
1119 1 51.150003000000005 57.094189220977995 1.04689075 0 0 0
1120 2 61.380020650001 55.125414910489 1.04689075 0 0 0
1121 2 51.150003000000005 49.219121510489 1.04689075 0 0 0
1122 2 56.265020350001 46.265945279022 1.04689075 0 0 0
1123 2 54.560003200000004 49.219121510489 1.04689075 0 0 0
1124 2 52.855020150001 52.172268210488994 1.04689075 0 0 0
1125 2 51.150003000000005 55.125414910489 1.04689075 0 0 0
1126 1 66.49498684999901 36.422132789511 1.04689075 0 0 0
1127 1 64.789986749999 39.375309020978 1.04689075 0 0 0
1128 1 63.084986649999 42.328426189511 1.04689075 0 0 0
1129 1 66.49498684999901 42.328426189511 1.04689075 0 0 0
1130 2 66.4950039 34.453358479022 1.04689075 0 0 0
1131 2 64.790020850001 37.406505179022 1.04689075 0 0 0
1132 2 63.08502075000101 40.359681410489 1.04689075 0 0 0
1133 2 61.380020650001 43.312798579022 1.04689075 0 0 0
1134 2 66.4950039 40.359681410489 1.04689075 0 0 0
1135 2 64.790020850001 43.312798579022 1.04689075 0 0 0
1136 1 61.3800036 45.281602420978 1.04689075 0 0 0
1137 1 59.674986449999004 48.234719589511 1.04689075 0 0 0
1138 1 57.9700034 51.187866289511 1.04689075 0 0 0
1139 1 56.264986249999005 54.141012989511 1.04689075 0 0 0
1140 1 54.559986149999006 57.094189220977995 1.04689075 0 0 0
1141 1 64.789986749999 45.281602420978 1.04689075 0 0 0
1142 1 63.084986649999 48.234719589511 1.04689075 0 0 0
1143 1 61.3800036 51.187866289511 1.04689075 0 0 0
1144 1 59.674986449999004 54.141012989511 1.04689075 0 0 0
1145 1 57.9700034 57.094189220977995 1.04689075 0 0 0
1146 1 66.49498684999901 48.234719589511 1.04689075 0 0 0
1147 1 64.789986749999 51.187866289511 1.04689075 0 0 0
1148 1 63.084986649999 54.141012989511 1.04689075 0 0 0
1149 1 61.3800036 57.094189220977995 1.04689075 0 0 0
1150 1 66.49498684999901 54.141012989511 1.04689075 0 0 0
1151 1 64.789986749999 57.094189220977995 1.04689075 0 0 0
1152 2 59.6750035 46.265945279022 1.04689075 0 0 0
1153 2 57.9700034 49.219121510489 1.04689075 0 0 0
1154 2 56.265020350001 52.172268210488994 1.04689075 0 0 0
1155 2 54.560003200000004 55.125414910489 1.04689075 0 0 0
1156 2 52.855020150001 58.078532079022 1.04689075 0 0 0
1157 2 63.08502075000101 46.265945279022 1.04689075 0 0 0
1158 2 61.380020650001 49.219121510489 1.04689075 0 0 0
1159 2 59.6750035 52.172268210488994 1.04689075 0 0 0
1160 2 57.9700034 55.125414910489 1.04689075 0 0 0
1161 2 56.265020350001 58.078532079022 1.04689075 0 0 0
1162 2 66.4950039 46.265945279022 1.04689075 0 0 0
1163 2 64.790020850001 49.219121510489 1.04689075 0 0 0
1164 2 63.08502075000101 52.172268210488994 1.04689075 0 0 0
1747 1 35.8050021 60.047335920978 1.04689075 0 0 0
1748 1 34.100002 63.000453089511 1.04689075 0 0 0
1749 1 39.214985249999 60.047335920978 1.04689075 0 0 0
1750 1 37.509985149999004 63.000453089511 1.04689075 0 0 0
1751 1 35.8050021 65.953599789511 1.04689075 0 0 0
1752 1 34.100002 68.906776020978 1.04689075 0 0 0
1753 1 42.624985449999 60.047335920978 1.04689075 0 0 0
1754 1 40.9200024 63.000453089511 1.04689075 0 0 0
1755 1 39.214985249999 65.953599789511 1.04689075 0 0 0
1756 1 37.509985149999004 68.906776020978 1.04689075 0 0 0
1757 1 35.8050021 71.859893189511 1.04689075 0 0 0
1758 1 46.034985649999 60.047335920978 1.04689075 0 0 0
1759 1 44.3300026 63.000453089511 1.04689075 0 0 0
1760 1 42.624985449999 65.953599789511 1.04689075 0 0 0
1761 1 40.9200024 68.906776020978 1.04689075 0 0 0
1762 1 39.214985249999 71.859893189511 1.04689075 0 0 0
1763 1 49.444985849999 60.047335920978 1.04689075 0 0 0
1764 1 47.73998574999901 63.000453089511 1.04689075 0 0 0
1765 1 46.034985649999 65.953599789511 1.04689075 0 0 0
1766 1 44.3300026 68.906776020978 1.04689075 0 0 0
1767 1 42.624985449999 71.859893189511 1.04689075 0 0 0
1768 2 34.100002 61.031708310489 1.04689075 0 0 0
1769 2 37.5100022 61.031708310489 1.04689075 0 0 0
1770 2 35.805019150001 63.984825479022 1.04689075 0 0 0
1771 2 34.100002 66.937972179022 1.04689075 0 0 0
1772 2 40.9200024 61.031708310489 1.04689075 0 0 0
1773 2 39.215019350001 63.984825479022 1.04689075 0 0 0
1774 2 37.5100022 66.937972179022 1.04689075 0 0 0
1775 2 35.805019150001 69.891148410489 1.04689075 0 0 0
1776 2 34.100002 72.844265579022 1.04689075 0 0 0
1777 2 44.330019650001006 61.031708310489 1.04689075 0 0 0
1778 2 42.62500250000001 63.984825479022 1.04689075 0 0 0
1779 2 40.9200024 66.937972179022 1.04689075 0 0 0
1780 2 39.215019350001 69.891148410489 1.04689075 0 0 0
1781 2 37.5100022 72.844265579022 1.04689075 0 0 0
1782 2 47.740019850001005 61.031708310489 1.04689075 0 0 0
1783 2 46.035019750001005 63.984825479022 1.04689075 0 0 0
1784 2 44.330019650001006 66.937972179022 1.04689075 0 0 0
1785 2 42.62500250000001 69.891148410489 1.04689075 0 0 0
1786 2 40.9200024 72.844265579022 1.04689075 0 0 0
1787 1 34.100002 74.813069420978 1.04689075 0 0 0
1788 1 37.509985149999004 74.813069420978 1.04689075 0 0 0
1789 1 35.8050021 77.766186589511 1.04689075 0 0 0
1790 1 34.100002 80.719333289511 1.04689075 0 0 0
1791 1 40.9200024 74.813069420978 1.04689075 0 0 0
1792 1 39.214985249999 77.766186589511 1.04689075 0 0 0
1793 1 37.509985149999004 80.719333289511 1.04689075 0 0 0
1794 1 35.8050021 83.672479989511 1.04689075 0 0 0
1795 1 34.100002 86.625656220978 1.04689075 0 0 0
1796 2 35.805019150001 75.797412279022 1.04689075 0 0 0
1797 2 34.100002 78.750588510489 1.04689075 0 0 0
1798 2 39.215019350001 75.797412279022 1.04689075 0 0 0
1799 2 37.5100022 78.750588510489 1.04689075 0 0 0
1800 2 35.805019150001 81.703735210489 1.04689075 0 0 0
1801 2 34.100002 84.656881910489 1.04689075 0 0 0
1802 1 49.444985849999 65.953599789511 1.04689075 0 0 0
1803 1 47.73998574999901 68.906776020978 1.04689075 0 0 0
1804 1 46.034985649999 71.859893189511 1.04689075 0 0 0
1805 2 66.4950039 87.609999079022 1.04689075 0 0 0
1806 2 49.445002900000006 63.984825479022 1.04689075 0 0 0
1807 2 47.740019850001005 66.937972179022 1.04689075 0 0 0
1808 2 46.035019750001005 69.891148410489 1.04689075 0 0 0
1809 2 44.330019650001006 72.844265579022 1.04689075 0 0 0
1810 2 49.445002900000006 69.891148410489 1.04689075 0 0 0
1811 2 47.740019850001005 72.844265579022 1.04689075 0 0 0
1812 1 44.3300026 74.813069420978 1.04689075 0 0 0
1813 1 42.624985449999 77.766186589511 1.04689075 0 0 0
1814 1 40.9200024 80.719333289511 1.04689075 0 0 0
1815 1 39.214985249999 83.672479989511 1.04689075 0 0 0
1816 1 37.509985149999004 86.625656220978 1.04689075 0 0 0
1817 1 47.73998574999901 74.813069420978 1.04689075 0 0 0
1818 1 46.034985649999 77.766186589511 1.04689075 0 0 0
1819 1 44.3300026 80.719333289511 1.04689075 0 0 0
1820 1 42.624985449999 83.672479989511 1.04689075 0 0 0
1821 1 40.9200024 86.625656220978 1.04689075 0 0 0
1822 1 49.444985849999 77.766186589511 1.04689075 0 0 0
1823 1 47.73998574999901 80.719333289511 1.04689075 0 0 0
1824 1 46.034985649999 83.672479989511 1.04689075 0 0 0
1825 1 44.3300026 86.625656220978 1.04689075 0 0 0
1826 1 49.444985849999 83.672479989511 1.04689075 0 0 0
1827 1 47.73998574999901 86.625656220978 1.04689075 0 0 0
1828 2 42.62500250000001 75.797412279022 1.04689075 0 0 0
1829 2 40.9200024 78.750588510489 1.04689075 0 0 0
1830 2 39.215019350001 81.703735210489 1.04689075 0 0 0
1831 2 37.5100022 84.656881910489 1.04689075 0 0 0
1832 2 35.805019150001 87.609999079022 1.04689075 0 0 0
1833 2 46.035019750001005 75.797412279022 1.04689075 0 0 0
1834 2 44.330019650001006 78.750588510489 1.04689075 0 0 0
1835 2 42.62500250000001 81.703735210489 1.04689075 0 0 0
1836 2 40.9200024 84.656881910489 1.04689075 0 0 0
1837 2 39.215019350001 87.609999079022 1.04689075 0 0 0
1838 2 63.08502075000101 87.609999079022 1.04689075 0 0 0
1839 2 47.740019850001005 78.750588510489 1.04689075 0 0 0
1840 2 46.035019750001005 81.703735210489 1.04689075 0 0 0
1841 2 44.330019650001006 84.656881910489 1.04689075 0 0 0
1842 2 42.62500250000001 87.609999079022 1.04689075 0 0 0
1843 2 49.445002900000006 81.703735210489 1.04689075 0 0 0
1844 2 47.740019850001005 84.656881910489 1.04689075 0 0 0
1845 2 46.035019750001005 87.609999079022 1.04689075 0 0 0
1846 2 49.445002900000006 87.609999079022 1.04689075 0 0 0
1847 1 52.855003100000005 60.047335920978 1.04689075 0 0 0
1848 1 51.150003000000005 63.000453089511 1.04689075 0 0 0
1849 1 56.264986249999005 60.047335920978 1.04689075 0 0 0
1850 1 54.559986149999006 63.000453089511 1.04689075 0 0 0
1851 1 52.855003100000005 65.953599789511 1.04689075 0 0 0
1852 1 51.150003000000005 68.906776020978 1.04689075 0 0 0
1853 1 59.674986449999004 60.047335920978 1.04689075 0 0 0
1854 1 57.9700034 63.000453089511 1.04689075 0 0 0
1855 1 56.264986249999005 65.953599789511 1.04689075 0 0 0
1856 1 54.559986149999006 68.906776020978 1.04689075 0 0 0
1857 2 64.790020850001 84.656881910489 1.04689075 0 0 0
1858 1 63.084986649999 60.047335920978 1.04689075 0 0 0
1859 1 61.3800036 63.000453089511 1.04689075 0 0 0
1860 1 59.674986449999004 65.953599789511 1.04689075 0 0 0
1861 1 57.9700034 68.906776020978 1.04689075 0 0 0
1862 1 56.264986249999005 71.859893189511 1.04689075 0 0 0
1863 1 66.49498684999901 60.047335920978 1.04689075 0 0 0
1864 1 64.789986749999 63.000453089511 1.04689075 0 0 0
1865 1 63.084986649999 65.953599789511 1.04689075 0 0 0
1866 1 61.3800036 68.906776020978 1.04689075 0 0 0
1867 1 59.674986449999004 71.859893189511 1.04689075 0 0 0
1868 2 51.150003000000005 61.031708310489 1.04689075 0 0 0
1869 2 54.560003200000004 61.031708310489 1.04689075 0 0 0
1870 2 52.855020150001 63.984825479022 1.04689075 0 0 0
1871 2 51.150003000000005 66.937972179022 1.04689075 0 0 0
1872 2 57.9700034 61.031708310489 1.04689075 0 0 0
1873 2 56.265020350001 63.984825479022 1.04689075 0 0 0
1874 2 54.560003200000004 66.937972179022 1.04689075 0 0 0
1875 2 52.855020150001 69.891148410489 1.04689075 0 0 0
1876 2 66.4950039 81.703735210489 1.04689075 0 0 0
1877 2 61.380020650001 61.031708310489 1.04689075 0 0 0
1878 2 59.6750035 63.984825479022 1.04689075 0 0 0
1879 2 57.9700034 66.937972179022 1.04689075 0 0 0
1880 2 56.265020350001 69.891148410489 1.04689075 0 0 0
1881 2 54.560003200000004 72.844265579022 1.04689075 0 0 0
1882 2 64.790020850001 61.031708310489 1.04689075 0 0 0
1883 2 63.08502075000101 63.984825479022 1.04689075 0 0 0
1884 2 61.380020650001 66.937972179022 1.04689075 0 0 0
1885 2 59.6750035 69.891148410489 1.04689075 0 0 0
1886 2 57.9700034 72.844265579022 1.04689075 0 0 0
1887 2 59.6750035 87.609999079022 1.04689075 0 0 0
1888 1 54.559986149999006 74.813069420978 1.04689075 0 0 0
1889 1 52.855003100000005 77.766186589511 1.04689075 0 0 0
1890 1 51.150003000000005 80.719333289511 1.04689075 0 0 0
1891 1 57.9700034 74.813069420978 1.04689075 0 0 0
1892 1 56.264986249999005 77.766186589511 1.04689075 0 0 0
1893 1 54.559986149999006 80.719333289511 1.04689075 0 0 0
1894 1 52.855003100000005 83.672479989511 1.04689075 0 0 0
1895 1 51.150003000000005 86.625656220978 1.04689075 0 0 0
1896 2 61.380020650001 84.656881910489 1.04689075 0 0 0
1897 2 51.150003000000005 78.750588510489 1.04689075 0 0 0
1898 2 56.265020350001 75.797412279022 1.04689075 0 0 0
1899 2 54.560003200000004 78.750588510489 1.04689075 0 0 0
1900 2 52.855020150001 81.703735210489 1.04689075 0 0 0
1901 2 51.150003000000005 84.656881910489 1.04689075 0 0 0
1902 1 66.49498684999901 65.953599789511 1.04689075 0 0 0
1903 1 64.789986749999 68.906776020978 1.04689075 0 0 0
1904 1 63.084986649999 71.859893189511 1.04689075 0 0 0
1905 1 66.49498684999901 71.859893189511 1.04689075 0 0 0
1906 2 66.4950039 63.984825479022 1.04689075 0 0 0
1907 2 64.790020850001 66.937972179022 1.04689075 0 0 0
1908 2 63.08502075000101 69.891148410489 1.04689075 0 0 0
1909 2 61.380020650001 72.844265579022 1.04689075 0 0 0
1910 2 66.4950039 69.891148410489 1.04689075 0 0 0
1911 2 64.790020850001 72.844265579022 1.04689075 0 0 0
1912 1 61.3800036 74.813069420978 1.04689075 0 0 0
1913 1 59.674986449999004 77.766186589511 1.04689075 0 0 0
1914 1 57.9700034 80.719333289511 1.04689075 0 0 0
1915 1 56.264986249999005 83.672479989511 1.04689075 0 0 0
1916 1 54.559986149999006 86.625656220978 1.04689075 0 0 0
1917 1 64.789986749999 74.813069420978 1.04689075 0 0 0
1918 1 63.084986649999 77.766186589511 1.04689075 0 0 0
1919 1 61.3800036 80.719333289511 1.04689075 0 0 0
1920 1 59.674986449999004 83.672479989511 1.04689075 0 0 0
1921 1 57.9700034 86.625656220978 1.04689075 0 0 0
1922 1 66.49498684999901 77.766186589511 1.04689075 0 0 0
1923 1 64.789986749999 80.719333289511 1.04689075 0 0 0
1924 1 63.084986649999 83.672479989511 1.04689075 0 0 0
1925 1 61.3800036 86.625656220978 1.04689075 0 0 0
1926 1 66.49498684999901 83.672479989511 1.04689075 0 0 0
1927 1 64.789986749999 86.625656220978 1.04689075 0 0 0
1928 2 59.6750035 75.797412279022 1.04689075 0 0 0
1929 2 57.9700034 78.750588510489 1.04689075 0 0 0
1930 2 56.265020350001 81.703735210489 1.04689075 0 0 0
1931 2 54.560003200000004 84.656881910489 1.04689075 0 0 0
1932 2 52.855020150001 87.609999079022 1.04689075 0 0 0
1933 2 63.08502075000101 75.797412279022 1.04689075 0 0 0
1934 2 61.380020650001 78.750588510489 1.04689075 0 0 0
1935 2 59.6750035 81.703735210489 1.04689075 0 0 0
1936 2 57.9700034 84.656881910489 1.04689075 0 0 0
1937 2 56.265020350001 87.609999079022 1.04689075 0 0 0
1938 2 66.4950039 75.797412279022 1.04689075 0 0 0
1939 2 64.790020850001 78.750588510489 1.04689075 0 0 0
1940 2 63.08502075000101 81.703735210489 1.04689075 0 0 0
2523 1 35.8050021 89.578802920978 1.04689075 0 0 0
2524 1 34.100002 92.531920089511 1.04689075 0 0 0
2525 1 39.214985249999 89.578802920978 1.04689075 0 0 0
2526 1 37.509985149999004 92.531920089511 1.04689075 0 0 0
2527 1 35.8050021 95.48506678951101 1.04689075 0 0 0
2528 1 34.100002 98.438243020978 1.04689075 0 0 0
2529 1 42.624985449999 89.578802920978 1.04689075 0 0 0
2530 1 40.9200024 92.531920089511 1.04689075 0 0 0
2531 1 39.214985249999 95.48506678951101 1.04689075 0 0 0
2532 1 37.509985149999004 98.438243020978 1.04689075 0 0 0
2533 1 35.8050021 101.391360189511 1.04689075 0 0 0
2534 1 46.034985649999 89.578802920978 1.04689075 0 0 0
2535 1 44.3300026 92.531920089511 1.04689075 0 0 0
2536 1 42.624985449999 95.48506678951101 1.04689075 0 0 0
2537 1 40.9200024 98.438243020978 1.04689075 0 0 0
2538 1 39.214985249999 101.391360189511 1.04689075 0 0 0
2539 1 49.444985849999 89.578802920978 1.04689075 0 0 0
2540 1 47.73998574999901 92.531920089511 1.04689075 0 0 0
2541 1 46.034985649999 95.48506678951101 1.04689075 0 0 0
2542 1 44.3300026 98.438243020978 1.04689075 0 0 0
2543 1 42.624985449999 101.391360189511 1.04689075 0 0 0
2544 2 34.100002 90.563175310489 1.04689075 0 0 0
2545 2 37.5100022 90.563175310489 1.04689075 0 0 0
2546 2 35.805019150001 93.516292479022 1.04689075 0 0 0
2547 2 34.100002 96.469439179022 1.04689075 0 0 0
2548 2 40.9200024 90.563175310489 1.04689075 0 0 0
2549 2 39.215019350001 93.516292479022 1.04689075 0 0 0
2550 2 37.5100022 96.469439179022 1.04689075 0 0 0
2551 2 35.805019150001 99.422615410489 1.04689075 0 0 0
2552 2 34.100002 102.375732579022 1.04689075 0 0 0
2553 2 44.330019650001006 90.563175310489 1.04689075 0 0 0
2554 2 42.62500250000001 93.516292479022 1.04689075 0 0 0
2555 2 40.9200024 96.469439179022 1.04689075 0 0 0
2556 2 39.215019350001 99.422615410489 1.04689075 0 0 0
2557 2 37.5100022 102.375732579022 1.04689075 0 0 0
2558 2 47.740019850001005 90.563175310489 1.04689075 0 0 0
2559 2 46.035019750001005 93.516292479022 1.04689075 0 0 0
2560 2 44.330019650001006 96.469439179022 1.04689075 0 0 0
2561 2 42.62500250000001 99.422615410489 1.04689075 0 0 0
2562 2 40.9200024 102.375732579022 1.04689075 0 0 0
2563 1 34.100002 104.344536420978 1.04689075 0 0 0
2564 1 37.509985149999004 104.344536420978 1.04689075 0 0 0
2565 1 35.8050021 107.297653589511 1.04689075 0 0 0
2566 1 34.100002 110.250800289511 1.04689075 0 0 0
2567 1 40.9200024 104.344536420978 1.04689075 0 0 0
2568 1 39.214985249999 107.297653589511 1.04689075 0 0 0
2569 1 37.509985149999004 110.250800289511 1.04689075 0 0 0
2570 1 35.8050021 113.203946989511 1.04689075 0 0 0
2571 1 34.100002 116.15712322097801 1.04689075 0 0 0
2572 2 35.805019150001 105.328879279022 1.04689075 0 0 0
2573 2 34.100002 108.282055510489 1.04689075 0 0 0
2574 2 39.215019350001 105.328879279022 1.04689075 0 0 0
2575 2 37.5100022 108.282055510489 1.04689075 0 0 0
2576 2 35.805019150001 111.235202210489 1.04689075 0 0 0
2577 2 34.100002 114.188348910489 1.04689075 0 0 0
2578 1 49.444985849999 95.48506678951101 1.04689075 0 0 0
2579 1 47.73998574999901 98.438243020978 1.04689075 0 0 0
2580 1 46.034985649999 101.391360189511 1.04689075 0 0 0
2581 2 66.4950039 117.14146607902201 1.04689075 0 0 0
2582 2 49.445002900000006 93.516292479022 1.04689075 0 0 0
2583 2 47.740019850001005 96.469439179022 1.04689075 0 0 0
2584 2 46.035019750001005 99.422615410489 1.04689075 0 0 0
2585 2 44.330019650001006 102.375732579022 1.04689075 0 0 0
2586 2 49.445002900000006 99.422615410489 1.04689075 0 0 0
2587 2 47.740019850001005 102.375732579022 1.04689075 0 0 0
2588 1 44.3300026 104.344536420978 1.04689075 0 0 0
2589 1 42.624985449999 107.297653589511 1.04689075 0 0 0
2590 1 40.9200024 110.250800289511 1.04689075 0 0 0
2591 1 39.214985249999 113.203946989511 1.04689075 0 0 0
2592 1 37.509985149999004 116.15712322097801 1.04689075 0 0 0
2593 1 47.73998574999901 104.344536420978 1.04689075 0 0 0
2594 1 46.034985649999 107.297653589511 1.04689075 0 0 0
2595 1 44.3300026 110.250800289511 1.04689075 0 0 0
2596 1 42.624985449999 113.203946989511 1.04689075 0 0 0
2597 1 40.9200024 116.15712322097801 1.04689075 0 0 0
2598 1 49.444985849999 107.297653589511 1.04689075 0 0 0
2599 1 47.73998574999901 110.250800289511 1.04689075 0 0 0
2600 1 46.034985649999 113.203946989511 1.04689075 0 0 0
2601 1 44.3300026 116.15712322097801 1.04689075 0 0 0
2602 1 49.444985849999 113.203946989511 1.04689075 0 0 0
2603 1 47.73998574999901 116.15712322097801 1.04689075 0 0 0
2604 2 42.62500250000001 105.328879279022 1.04689075 0 0 0
2605 2 40.9200024 108.282055510489 1.04689075 0 0 0
2606 2 39.215019350001 111.235202210489 1.04689075 0 0 0
2607 2 37.5100022 114.188348910489 1.04689075 0 0 0
2608 2 35.805019150001 117.14146607902201 1.04689075 0 0 0
2609 2 46.035019750001005 105.328879279022 1.04689075 0 0 0
2610 2 44.330019650001006 108.282055510489 1.04689075 0 0 0
2611 2 42.62500250000001 111.235202210489 1.04689075 0 0 0
2612 2 40.9200024 114.188348910489 1.04689075 0 0 0
2613 2 39.215019350001 117.14146607902201 1.04689075 0 0 0
2614 2 63.08502075000101 117.14146607902201 1.04689075 0 0 0
2615 2 47.740019850001005 108.282055510489 1.04689075 0 0 0
2616 2 46.035019750001005 111.235202210489 1.04689075 0 0 0
2617 2 44.330019650001006 114.188348910489 1.04689075 0 0 0
2618 2 42.62500250000001 117.14146607902201 1.04689075 0 0 0
2619 2 49.445002900000006 111.235202210489 1.04689075 0 0 0
2620 2 47.740019850001005 114.188348910489 1.04689075 0 0 0
2621 2 46.035019750001005 117.14146607902201 1.04689075 0 0 0
2622 2 49.445002900000006 117.14146607902201 1.04689075 0 0 0
2623 1 52.855003100000005 89.578802920978 1.04689075 0 0 0
2624 1 51.150003000000005 92.531920089511 1.04689075 0 0 0
2625 1 56.264986249999005 89.578802920978 1.04689075 0 0 0
2626 1 54.559986149999006 92.531920089511 1.04689075 0 0 0
2627 1 52.855003100000005 95.48506678951101 1.04689075 0 0 0
2628 1 51.150003000000005 98.438243020978 1.04689075 0 0 0
2629 1 59.674986449999004 89.578802920978 1.04689075 0 0 0
2630 1 57.9700034 92.531920089511 1.04689075 0 0 0
2631 1 56.264986249999005 95.48506678951101 1.04689075 0 0 0
2632 1 54.559986149999006 98.438243020978 1.04689075 0 0 0
2633 2 64.790020850001 114.188348910489 1.04689075 0 0 0
2634 1 63.084986649999 89.578802920978 1.04689075 0 0 0
2635 1 61.3800036 92.531920089511 1.04689075 0 0 0
2636 1 59.674986449999004 95.48506678951101 1.04689075 0 0 0
2637 1 57.9700034 98.438243020978 1.04689075 0 0 0
2638 1 56.264986249999005 101.391360189511 1.04689075 0 0 0
2639 1 66.49498684999901 89.578802920978 1.04689075 0 0 0
2640 1 64.789986749999 92.531920089511 1.04689075 0 0 0
2641 1 63.084986649999 95.48506678951101 1.04689075 0 0 0
2642 1 61.3800036 98.438243020978 1.04689075 0 0 0
2643 1 59.674986449999004 101.391360189511 1.04689075 0 0 0
2644 2 51.150003000000005 90.563175310489 1.04689075 0 0 0
2645 2 54.560003200000004 90.563175310489 1.04689075 0 0 0
2646 2 52.855020150001 93.516292479022 1.04689075 0 0 0
2647 2 51.150003000000005 96.469439179022 1.04689075 0 0 0
2648 2 57.9700034 90.563175310489 1.04689075 0 0 0
2649 2 56.265020350001 93.516292479022 1.04689075 0 0 0
2650 2 54.560003200000004 96.469439179022 1.04689075 0 0 0
2651 2 52.855020150001 99.422615410489 1.04689075 0 0 0
2652 2 66.4950039 111.235202210489 1.04689075 0 0 0
2653 2 61.380020650001 90.563175310489 1.04689075 0 0 0
2654 2 59.6750035 93.516292479022 1.04689075 0 0 0
2655 2 57.9700034 96.469439179022 1.04689075 0 0 0
2656 2 56.265020350001 99.422615410489 1.04689075 0 0 0
2657 2 54.560003200000004 102.375732579022 1.04689075 0 0 0
2658 2 64.790020850001 90.563175310489 1.04689075 0 0 0
2659 2 63.08502075000101 93.516292479022 1.04689075 0 0 0
2660 2 61.380020650001 96.469439179022 1.04689075 0 0 0
2661 2 59.6750035 99.422615410489 1.04689075 0 0 0
2662 2 57.9700034 102.375732579022 1.04689075 0 0 0
2663 2 59.6750035 117.14146607902201 1.04689075 0 0 0
2664 1 54.559986149999006 104.344536420978 1.04689075 0 0 0
2665 1 52.855003100000005 107.297653589511 1.04689075 0 0 0
2666 1 51.150003000000005 110.250800289511 1.04689075 0 0 0
2667 1 57.9700034 104.344536420978 1.04689075 0 0 0
2668 1 56.264986249999005 107.297653589511 1.04689075 0 0 0
2669 1 54.559986149999006 110.250800289511 1.04689075 0 0 0
2670 1 52.855003100000005 113.203946989511 1.04689075 0 0 0
2671 1 51.150003000000005 116.15712322097801 1.04689075 0 0 0
2672 2 61.380020650001 114.188348910489 1.04689075 0 0 0
2673 2 51.150003000000005 108.282055510489 1.04689075 0 0 0
2674 2 56.265020350001 105.328879279022 1.04689075 0 0 0
2675 2 54.560003200000004 108.282055510489 1.04689075 0 0 0
2676 2 52.855020150001 111.235202210489 1.04689075 0 0 0
2677 2 51.150003000000005 114.188348910489 1.04689075 0 0 0
2678 1 66.49498684999901 95.48506678951101 1.04689075 0 0 0
2679 1 64.789986749999 98.438243020978 1.04689075 0 0 0
2680 1 63.084986649999 101.391360189511 1.04689075 0 0 0
2681 1 66.49498684999901 101.391360189511 1.04689075 0 0 0
2682 2 66.4950039 93.516292479022 1.04689075 0 0 0
2683 2 64.790020850001 96.469439179022 1.04689075 0 0 0
2684 2 63.08502075000101 99.422615410489 1.04689075 0 0 0
2685 2 61.380020650001 102.375732579022 1.04689075 0 0 0
2686 2 66.4950039 99.422615410489 1.04689075 0 0 0
2687 2 64.790020850001 102.375732579022 1.04689075 0 0 0
2688 1 61.3800036 104.344536420978 1.04689075 0 0 0
2689 1 59.674986449999004 107.297653589511 1.04689075 0 0 0
2690 1 57.9700034 110.250800289511 1.04689075 0 0 0
2691 1 56.264986249999005 113.203946989511 1.04689075 0 0 0
2692 1 54.559986149999006 116.15712322097801 1.04689075 0 0 0
2693 1 64.789986749999 104.344536420978 1.04689075 0 0 0
2694 1 63.084986649999 107.297653589511 1.04689075 0 0 0
2695 1 61.3800036 110.250800289511 1.04689075 0 0 0
2696 1 59.674986449999004 113.203946989511 1.04689075 0 0 0
2697 1 57.9700034 116.15712322097801 1.04689075 0 0 0
2698 1 66.49498684999901 107.297653589511 1.04689075 0 0 0
2699 1 64.789986749999 110.250800289511 1.04689075 0 0 0
2700 1 63.084986649999 113.203946989511 1.04689075 0 0 0
2701 1 61.3800036 116.15712322097801 1.04689075 0 0 0
2702 1 66.49498684999901 113.203946989511 1.04689075 0 0 0
2703 1 64.789986749999 116.15712322097801 1.04689075 0 0 0
2704 2 59.6750035 105.328879279022 1.04689075 0 0 0
2705 2 57.9700034 108.282055510489 1.04689075 0 0 0
2706 2 56.265020350001 111.235202210489 1.04689075 0 0 0
2707 2 54.560003200000004 114.188348910489 1.04689075 0 0 0
2708 2 52.855020150001 117.14146607902201 1.04689075 0 0 0
2709 2 63.08502075000101 105.328879279022 1.04689075 0 0 0
2710 2 61.380020650001 108.282055510489 1.04689075 0 0 0
2711 2 59.6750035 111.235202210489 1.04689075 0 0 0
2712 2 57.9700034 114.188348910489 1.04689075 0 0 0
2713 2 56.265020350001 117.14146607902201 1.04689075 0 0 0
2714 2 66.4950039 105.328879279022 1.04689075 0 0 0
2715 2 64.790020850001 108.282055510489 1.04689075 0 0 0
2716 2 63.08502075000101 111.235202210489 1.04689075 0 0 0
3299 1 35.8050021 119.110269920978 1.04689075 0 0 0
3300 1 34.100002 122.063387089511 1.04689075 0 0 0
3301 1 39.214985249999 119.110269920978 1.04689075 0 0 0
3302 1 37.509985149999004 122.063387089511 1.04689075 0 0 0
3303 1 35.8050021 125.016533789511 1.04689075 0 0 0
3304 1 34.100002 127.969710020978 1.04689075 0 0 0
3305 1 42.624985449999 119.110269920978 1.04689075 0 0 0
3306 1 40.9200024 122.063387089511 1.04689075 0 0 0
3307 1 39.214985249999 125.016533789511 1.04689075 0 0 0
3308 1 37.509985149999004 127.969710020978 1.04689075 0 0 0
3309 1 35.8050021 130.922827189511 1.04689075 0 0 0
3310 1 46.034985649999 119.110269920978 1.04689075 0 0 0
3311 1 44.3300026 122.063387089511 1.04689075 0 0 0
3312 1 42.624985449999 125.016533789511 1.04689075 0 0 0
3313 1 40.9200024 127.969710020978 1.04689075 0 0 0
3314 1 39.214985249999 130.922827189511 1.04689075 0 0 0
3315 1 49.444985849999 119.110269920978 1.04689075 0 0 0
3316 1 47.73998574999901 122.063387089511 1.04689075 0 0 0
3317 1 46.034985649999 125.016533789511 1.04689075 0 0 0
3318 1 44.3300026 127.969710020978 1.04689075 0 0 0
3319 1 42.624985449999 130.922827189511 1.04689075 0 0 0
3320 2 34.100002 120.094642310489 1.04689075 0 0 0
3321 2 37.5100022 120.094642310489 1.04689075 0 0 0
3322 2 35.805019150001 123.04775947902199 1.04689075 0 0 0
3323 2 34.100002 126.000906179022 1.04689075 0 0 0
3324 2 40.9200024 120.094642310489 1.04689075 0 0 0
3325 2 39.215019350001 123.04775947902199 1.04689075 0 0 0
3326 2 37.5100022 126.000906179022 1.04689075 0 0 0
3327 2 35.805019150001 128.954082410489 1.04689075 0 0 0
3328 2 34.100002 131.907199579022 1.04689075 0 0 0
3329 2 44.330019650001006 120.094642310489 1.04689075 0 0 0
3330 2 42.62500250000001 123.04775947902199 1.04689075 0 0 0
3331 2 40.9200024 126.000906179022 1.04689075 0 0 0
3332 2 39.215019350001 128.954082410489 1.04689075 0 0 0
3333 2 37.5100022 131.907199579022 1.04689075 0 0 0
3334 2 47.740019850001005 120.094642310489 1.04689075 0 0 0
3335 2 46.035019750001005 123.04775947902199 1.04689075 0 0 0
3336 2 44.330019650001006 126.000906179022 1.04689075 0 0 0
3337 2 42.62500250000001 128.954082410489 1.04689075 0 0 0
3338 2 40.9200024 131.907199579022 1.04689075 0 0 0
3339 1 34.100002 133.876003420978 1.04689075 0 0 0
3340 1 37.509985149999004 133.876003420978 1.04689075 0 0 0
3341 1 35.8050021 136.829120589511 1.04689075 0 0 0
3342 1 34.100002 139.782267289511 1.04689075 0 0 0
3343 1 40.9200024 133.876003420978 1.04689075 0 0 0
3344 1 39.214985249999 136.829120589511 1.04689075 0 0 0
3345 1 37.509985149999004 139.782267289511 1.04689075 0 0 0
3346 1 35.8050021 142.735413989511 1.04689075 0 0 0
3347 1 34.100002 145.688590220978 1.04689075 0 0 0
3348 2 35.805019150001 134.860346279022 1.04689075 0 0 0
3349 2 34.100002 137.813522510489 1.04689075 0 0 0
3350 2 39.215019350001 134.860346279022 1.04689075 0 0 0
3351 2 37.5100022 137.813522510489 1.04689075 0 0 0
3352 2 35.805019150001 140.766669210489 1.04689075 0 0 0
3353 2 34.100002 143.719815910489 1.04689075 0 0 0
3354 1 49.444985849999 125.016533789511 1.04689075 0 0 0
3355 1 47.73998574999901 127.969710020978 1.04689075 0 0 0
3356 1 46.034985649999 130.922827189511 1.04689075 0 0 0
3357 2 66.4950039 146.672933079022 1.04689075 0 0 0
3358 2 49.445002900000006 123.04775947902199 1.04689075 0 0 0
3359 2 47.740019850001005 126.000906179022 1.04689075 0 0 0
3360 2 46.035019750001005 128.954082410489 1.04689075 0 0 0
3361 2 44.330019650001006 131.907199579022 1.04689075 0 0 0
3362 2 49.445002900000006 128.954082410489 1.04689075 0 0 0
3363 2 47.740019850001005 131.907199579022 1.04689075 0 0 0
3364 1 44.3300026 133.876003420978 1.04689075 0 0 0
3365 1 42.624985449999 136.829120589511 1.04689075 0 0 0
3366 1 40.9200024 139.782267289511 1.04689075 0 0 0
3367 1 39.214985249999 142.735413989511 1.04689075 0 0 0
3368 1 37.509985149999004 145.688590220978 1.04689075 0 0 0
3369 1 47.73998574999901 133.876003420978 1.04689075 0 0 0
3370 1 46.034985649999 136.829120589511 1.04689075 0 0 0
3371 1 44.3300026 139.782267289511 1.04689075 0 0 0
3372 1 42.624985449999 142.735413989511 1.04689075 0 0 0
3373 1 40.9200024 145.688590220978 1.04689075 0 0 0
3374 1 49.444985849999 136.829120589511 1.04689075 0 0 0
3375 1 47.73998574999901 139.782267289511 1.04689075 0 0 0
3376 1 46.034985649999 142.735413989511 1.04689075 0 0 0
3377 1 44.3300026 145.688590220978 1.04689075 0 0 0
3378 1 49.444985849999 142.735413989511 1.04689075 0 0 0
3379 1 47.73998574999901 145.688590220978 1.04689075 0 0 0
3380 2 42.62500250000001 134.860346279022 1.04689075 0 0 0
3381 2 40.9200024 137.813522510489 1.04689075 0 0 0
3382 2 39.215019350001 140.766669210489 1.04689075 0 0 0
3383 2 37.5100022 143.719815910489 1.04689075 0 0 0
3384 2 35.805019150001 146.672933079022 1.04689075 0 0 0
3385 2 46.035019750001005 134.860346279022 1.04689075 0 0 0
3386 2 44.330019650001006 137.813522510489 1.04689075 0 0 0
3387 2 42.62500250000001 140.766669210489 1.04689075 0 0 0
3388 2 40.9200024 143.719815910489 1.04689075 0 0 0
3389 2 39.215019350001 146.672933079022 1.04689075 0 0 0
3390 2 63.08502075000101 146.672933079022 1.04689075 0 0 0
3391 2 47.740019850001005 137.813522510489 1.04689075 0 0 0
3392 2 46.035019750001005 140.766669210489 1.04689075 0 0 0
3393 2 44.330019650001006 143.719815910489 1.04689075 0 0 0
3394 2 42.62500250000001 146.672933079022 1.04689075 0 0 0
3395 2 49.445002900000006 140.766669210489 1.04689075 0 0 0
3396 2 47.740019850001005 143.719815910489 1.04689075 0 0 0
3397 2 46.035019750001005 146.672933079022 1.04689075 0 0 0
3398 2 49.445002900000006 146.672933079022 1.04689075 0 0 0
3399 1 52.855003100000005 119.110269920978 1.04689075 0 0 0
3400 1 51.150003000000005 122.063387089511 1.04689075 0 0 0
3401 1 56.264986249999005 119.110269920978 1.04689075 0 0 0
3402 1 54.559986149999006 122.063387089511 1.04689075 0 0 0
3403 1 52.855003100000005 125.016533789511 1.04689075 0 0 0
3404 1 51.150003000000005 127.969710020978 1.04689075 0 0 0
3405 1 59.674986449999004 119.110269920978 1.04689075 0 0 0
3406 1 57.9700034 122.063387089511 1.04689075 0 0 0
3407 1 56.264986249999005 125.016533789511 1.04689075 0 0 0
3408 1 54.559986149999006 127.969710020978 1.04689075 0 0 0
3409 2 64.790020850001 143.719815910489 1.04689075 0 0 0
3410 1 63.084986649999 119.110269920978 1.04689075 0 0 0
3411 1 61.3800036 122.063387089511 1.04689075 0 0 0
3412 1 59.674986449999004 125.016533789511 1.04689075 0 0 0
3413 1 57.9700034 127.969710020978 1.04689075 0 0 0
3414 1 56.264986249999005 130.922827189511 1.04689075 0 0 0
3415 1 66.49498684999901 119.110269920978 1.04689075 0 0 0
3416 1 64.789986749999 122.063387089511 1.04689075 0 0 0
3417 1 63.084986649999 125.016533789511 1.04689075 0 0 0
3418 1 61.3800036 127.969710020978 1.04689075 0 0 0
3419 1 59.674986449999004 130.922827189511 1.04689075 0 0 0
3420 2 51.150003000000005 120.094642310489 1.04689075 0 0 0
3421 2 54.560003200000004 120.094642310489 1.04689075 0 0 0
3422 2 52.855020150001 123.04775947902199 1.04689075 0 0 0
3423 2 51.150003000000005 126.000906179022 1.04689075 0 0 0
3424 2 57.9700034 120.094642310489 1.04689075 0 0 0
3425 2 56.265020350001 123.04775947902199 1.04689075 0 0 0
3426 2 54.560003200000004 126.000906179022 1.04689075 0 0 0
3427 2 52.855020150001 128.954082410489 1.04689075 0 0 0
3428 2 66.4950039 140.766669210489 1.04689075 0 0 0
3429 2 61.380020650001 120.094642310489 1.04689075 0 0 0
3430 2 59.6750035 123.04775947902199 1.04689075 0 0 0
3431 2 57.9700034 126.000906179022 1.04689075 0 0 0
3432 2 56.265020350001 128.954082410489 1.04689075 0 0 0
3433 2 54.560003200000004 131.907199579022 1.04689075 0 0 0
3434 2 64.790020850001 120.094642310489 1.04689075 0 0 0
3435 2 63.08502075000101 123.04775947902199 1.04689075 0 0 0
3436 2 61.380020650001 126.000906179022 1.04689075 0 0 0
3437 2 59.6750035 128.954082410489 1.04689075 0 0 0
3438 2 57.9700034 131.907199579022 1.04689075 0 0 0
3439 2 59.6750035 146.672933079022 1.04689075 0 0 0
3440 1 54.559986149999006 133.876003420978 1.04689075 0 0 0
3441 1 52.855003100000005 136.829120589511 1.04689075 0 0 0
3442 1 51.150003000000005 139.782267289511 1.04689075 0 0 0
3443 1 57.9700034 133.876003420978 1.04689075 0 0 0
3444 1 56.264986249999005 136.829120589511 1.04689075 0 0 0
3445 1 54.559986149999006 139.782267289511 1.04689075 0 0 0
3446 1 52.855003100000005 142.735413989511 1.04689075 0 0 0
3447 1 51.150003000000005 145.688590220978 1.04689075 0 0 0
3448 2 61.380020650001 143.719815910489 1.04689075 0 0 0
3449 2 51.150003000000005 137.813522510489 1.04689075 0 0 0
3450 2 56.265020350001 134.860346279022 1.04689075 0 0 0
3451 2 54.560003200000004 137.813522510489 1.04689075 0 0 0
3452 2 52.855020150001 140.766669210489 1.04689075 0 0 0
3453 2 51.150003000000005 143.719815910489 1.04689075 0 0 0
3454 1 66.49498684999901 125.016533789511 1.04689075 0 0 0
3455 1 64.789986749999 127.969710020978 1.04689075 0 0 0
3456 1 63.084986649999 130.922827189511 1.04689075 0 0 0
3457 1 66.49498684999901 130.922827189511 1.04689075 0 0 0
3458 2 66.4950039 123.04775947902199 1.04689075 0 0 0
3459 2 64.790020850001 126.000906179022 1.04689075 0 0 0
3460 2 63.08502075000101 128.954082410489 1.04689075 0 0 0
3461 2 61.380020650001 131.907199579022 1.04689075 0 0 0
3462 2 66.4950039 128.954082410489 1.04689075 0 0 0
3463 2 64.790020850001 131.907199579022 1.04689075 0 0 0
3464 1 61.3800036 133.876003420978 1.04689075 0 0 0
3465 1 59.674986449999004 136.829120589511 1.04689075 0 0 0
3466 1 57.9700034 139.782267289511 1.04689075 0 0 0
3467 1 56.264986249999005 142.735413989511 1.04689075 0 0 0
3468 1 54.559986149999006 145.688590220978 1.04689075 0 0 0
3469 1 64.789986749999 133.876003420978 1.04689075 0 0 0
3470 1 63.084986649999 136.829120589511 1.04689075 0 0 0
3471 1 61.3800036 139.782267289511 1.04689075 0 0 0
3472 1 59.674986449999004 142.735413989511 1.04689075 0 0 0
3473 1 57.9700034 145.688590220978 1.04689075 0 0 0
3474 1 66.49498684999901 136.829120589511 1.04689075 0 0 0
3475 1 64.789986749999 139.782267289511 1.04689075 0 0 0
3476 1 63.084986649999 142.735413989511 1.04689075 0 0 0
3477 1 61.3800036 145.688590220978 1.04689075 0 0 0
3478 1 66.49498684999901 142.735413989511 1.04689075 0 0 0
3479 1 64.789986749999 145.688590220978 1.04689075 0 0 0
3480 2 59.6750035 134.860346279022 1.04689075 0 0 0
3481 2 57.9700034 137.813522510489 1.04689075 0 0 0
3482 2 56.265020350001 140.766669210489 1.04689075 0 0 0
3483 2 54.560003200000004 143.719815910489 1.04689075 0 0 0
3484 2 52.855020150001 146.672933079022 1.04689075 0 0 0
3485 2 63.08502075000101 134.860346279022 1.04689075 0 0 0
3486 2 61.380020650001 137.813522510489 1.04689075 0 0 0
3487 2 59.6750035 140.766669210489 1.04689075 0 0 0
3488 2 57.9700034 143.719815910489 1.04689075 0 0 0
3489 2 56.265020350001 146.672933079022 1.04689075 0 0 0
3490 2 66.4950039 134.860346279022 1.04689075 0 0 0
3491 2 64.790020850001 137.813522510489 1.04689075 0 0 0
3492 2 63.08502075000101 140.766669210489 1.04689075 0 0 0
4075 1 35.8050021 148.641736920978 1.04689075 0 0 0
4076 1 34.100002 151.594854089511 1.04689075 0 0 0
4077 1 39.214985249999 148.641736920978 1.04689075 0 0 0
4078 1 37.509985149999004 151.594854089511 1.04689075 0 0 0
4079 1 35.8050021 154.54800078951098 1.04689075 0 0 0
4080 1 34.100002 157.501177020978 1.04689075 0 0 0
4081 1 42.624985449999 148.641736920978 1.04689075 0 0 0
4082 1 40.9200024 151.594854089511 1.04689075 0 0 0
4083 1 39.214985249999 154.54800078951098 1.04689075 0 0 0
4084 1 37.509985149999004 157.501177020978 1.04689075 0 0 0
4085 1 35.8050021 160.454294189511 1.04689075 0 0 0
4086 1 46.034985649999 148.641736920978 1.04689075 0 0 0
4087 1 44.3300026 151.594854089511 1.04689075 0 0 0
4088 1 42.624985449999 154.54800078951098 1.04689075 0 0 0
4089 1 40.9200024 157.501177020978 1.04689075 0 0 0
4090 1 39.214985249999 160.454294189511 1.04689075 0 0 0
4091 1 49.444985849999 148.641736920978 1.04689075 0 0 0
4092 1 47.73998574999901 151.594854089511 1.04689075 0 0 0
4093 1 46.034985649999 154.54800078951098 1.04689075 0 0 0
4094 1 44.3300026 157.501177020978 1.04689075 0 0 0
4095 1 42.624985449999 160.454294189511 1.04689075 0 0 0
4096 2 34.100002 149.626109310489 1.04689075 0 0 0
4097 2 37.5100022 149.626109310489 1.04689075 0 0 0
4098 2 35.805019150001 152.579226479022 1.04689075 0 0 0
4099 2 34.100002 155.532373179022 1.04689075 0 0 0
4100 2 40.9200024 149.626109310489 1.04689075 0 0 0
4101 2 39.215019350001 152.579226479022 1.04689075 0 0 0
4102 2 37.5100022 155.532373179022 1.04689075 0 0 0
4103 2 35.805019150001 158.485549410489 1.04689075 0 0 0
4104 2 34.100002 161.438666579022 1.04689075 0 0 0
4105 2 44.330019650001006 149.626109310489 1.04689075 0 0 0
4106 2 42.62500250000001 152.579226479022 1.04689075 0 0 0
4107 2 40.9200024 155.532373179022 1.04689075 0 0 0
4108 2 39.215019350001 158.485549410489 1.04689075 0 0 0
4109 2 37.5100022 161.438666579022 1.04689075 0 0 0
4110 2 47.740019850001005 149.626109310489 1.04689075 0 0 0
4111 2 46.035019750001005 152.579226479022 1.04689075 0 0 0
4112 2 44.330019650001006 155.532373179022 1.04689075 0 0 0
4113 2 42.62500250000001 158.485549410489 1.04689075 0 0 0
4114 2 40.9200024 161.438666579022 1.04689075 0 0 0
4115 1 34.100002 163.407470420978 1.04689075 0 0 0
4116 1 37.509985149999004 163.407470420978 1.04689075 0 0 0
4117 1 35.8050021 166.360587589511 1.04689075 0 0 0
4118 1 34.100002 169.313734289511 1.04689075 0 0 0
4119 1 40.9200024 163.407470420978 1.04689075 0 0 0
4120 1 39.214985249999 166.360587589511 1.04689075 0 0 0
4121 1 37.509985149999004 169.313734289511 1.04689075 0 0 0
4122 1 35.8050021 172.26688098951098 1.04689075 0 0 0
4123 1 34.100002 175.220057220978 1.04689075 0 0 0
4124 2 35.805019150001 164.391813279022 1.04689075 0 0 0
4125 2 34.100002 167.344989510489 1.04689075 0 0 0
4126 2 39.215019350001 164.391813279022 1.04689075 0 0 0
4127 2 37.5100022 167.344989510489 1.04689075 0 0 0
4128 2 35.805019150001 170.298136210489 1.04689075 0 0 0
4129 2 34.100002 173.25128291048898 1.04689075 0 0 0
4130 1 49.444985849999 154.54800078951098 1.04689075 0 0 0
4131 1 47.73998574999901 157.501177020978 1.04689075 0 0 0
4132 1 46.034985649999 160.454294189511 1.04689075 0 0 0
4133 2 66.4950039 176.20440007902198 1.04689075 0 0 0
4134 2 49.445002900000006 152.579226479022 1.04689075 0 0 0
4135 2 47.740019850001005 155.532373179022 1.04689075 0 0 0
4136 2 46.035019750001005 158.485549410489 1.04689075 0 0 0
4137 2 44.330019650001006 161.438666579022 1.04689075 0 0 0
4138 2 49.445002900000006 158.485549410489 1.04689075 0 0 0
4139 2 47.740019850001005 161.438666579022 1.04689075 0 0 0
4140 1 44.3300026 163.407470420978 1.04689075 0 0 0
4141 1 42.624985449999 166.360587589511 1.04689075 0 0 0
4142 1 40.9200024 169.313734289511 1.04689075 0 0 0
4143 1 39.214985249999 172.26688098951098 1.04689075 0 0 0
4144 1 37.509985149999004 175.220057220978 1.04689075 0 0 0
4145 1 47.73998574999901 163.407470420978 1.04689075 0 0 0
4146 1 46.034985649999 166.360587589511 1.04689075 0 0 0
4147 1 44.3300026 169.313734289511 1.04689075 0 0 0
4148 1 42.624985449999 172.26688098951098 1.04689075 0 0 0
4149 1 40.9200024 175.220057220978 1.04689075 0 0 0
4150 1 49.444985849999 166.360587589511 1.04689075 0 0 0
4151 1 47.73998574999901 169.313734289511 1.04689075 0 0 0
4152 1 46.034985649999 172.26688098951098 1.04689075 0 0 0
4153 1 44.3300026 175.220057220978 1.04689075 0 0 0
4154 1 49.444985849999 172.26688098951098 1.04689075 0 0 0
4155 1 47.73998574999901 175.220057220978 1.04689075 0 0 0
4156 2 42.62500250000001 164.391813279022 1.04689075 0 0 0
4157 2 40.9200024 167.344989510489 1.04689075 0 0 0
4158 2 39.215019350001 170.298136210489 1.04689075 0 0 0
4159 2 37.5100022 173.25128291048898 1.04689075 0 0 0
4160 2 35.805019150001 176.20440007902198 1.04689075 0 0 0
4161 2 46.035019750001005 164.391813279022 1.04689075 0 0 0
4162 2 44.330019650001006 167.344989510489 1.04689075 0 0 0
4163 2 42.62500250000001 170.298136210489 1.04689075 0 0 0
4164 2 40.9200024 173.25128291048898 1.04689075 0 0 0
4165 2 39.215019350001 176.20440007902198 1.04689075 0 0 0
4166 2 63.08502075000101 176.20440007902198 1.04689075 0 0 0
4167 2 47.740019850001005 167.344989510489 1.04689075 0 0 0
4168 2 46.035019750001005 170.298136210489 1.04689075 0 0 0
4169 2 44.330019650001006 173.25128291048898 1.04689075 0 0 0
4170 2 42.62500250000001 176.20440007902198 1.04689075 0 0 0
4171 2 49.445002900000006 170.298136210489 1.04689075 0 0 0
4172 2 47.740019850001005 173.25128291048898 1.04689075 0 0 0
4173 2 46.035019750001005 176.20440007902198 1.04689075 0 0 0
4174 2 49.445002900000006 176.20440007902198 1.04689075 0 0 0
4175 1 52.855003100000005 148.641736920978 1.04689075 0 0 0
4176 1 51.150003000000005 151.594854089511 1.04689075 0 0 0
4177 1 56.264986249999005 148.641736920978 1.04689075 0 0 0
4178 1 54.559986149999006 151.594854089511 1.04689075 0 0 0
4179 1 52.855003100000005 154.54800078951098 1.04689075 0 0 0
4180 1 51.150003000000005 157.501177020978 1.04689075 0 0 0
4181 1 59.674986449999004 148.641736920978 1.04689075 0 0 0
4182 1 57.9700034 151.594854089511 1.04689075 0 0 0
4183 1 56.264986249999005 154.54800078951098 1.04689075 0 0 0
4184 1 54.559986149999006 157.501177020978 1.04689075 0 0 0
4185 2 64.790020850001 173.25128291048898 1.04689075 0 0 0
4186 1 63.084986649999 148.641736920978 1.04689075 0 0 0
4187 1 61.3800036 151.594854089511 1.04689075 0 0 0
4188 1 59.674986449999004 154.54800078951098 1.04689075 0 0 0
4189 1 57.9700034 157.501177020978 1.04689075 0 0 0
4190 1 56.264986249999005 160.454294189511 1.04689075 0 0 0
4191 1 66.49498684999901 148.641736920978 1.04689075 0 0 0
4192 1 64.789986749999 151.594854089511 1.04689075 0 0 0
4193 1 63.084986649999 154.54800078951098 1.04689075 0 0 0
4194 1 61.3800036 157.501177020978 1.04689075 0 0 0
4195 1 59.674986449999004 160.454294189511 1.04689075 0 0 0
4196 2 51.150003000000005 149.626109310489 1.04689075 0 0 0
4197 2 54.560003200000004 149.626109310489 1.04689075 0 0 0
4198 2 52.855020150001 152.579226479022 1.04689075 0 0 0
4199 2 51.150003000000005 155.532373179022 1.04689075 0 0 0
4200 2 57.9700034 149.626109310489 1.04689075 0 0 0
4201 2 56.265020350001 152.579226479022 1.04689075 0 0 0
4202 2 54.560003200000004 155.532373179022 1.04689075 0 0 0
4203 2 52.855020150001 158.485549410489 1.04689075 0 0 0
4204 2 66.4950039 170.298136210489 1.04689075 0 0 0
4205 2 61.380020650001 149.626109310489 1.04689075 0 0 0
4206 2 59.6750035 152.579226479022 1.04689075 0 0 0
4207 2 57.9700034 155.532373179022 1.04689075 0 0 0
4208 2 56.265020350001 158.485549410489 1.04689075 0 0 0
4209 2 54.560003200000004 161.438666579022 1.04689075 0 0 0
4210 2 64.790020850001 149.626109310489 1.04689075 0 0 0
4211 2 63.08502075000101 152.579226479022 1.04689075 0 0 0
4212 2 61.380020650001 155.532373179022 1.04689075 0 0 0
4213 2 59.6750035 158.485549410489 1.04689075 0 0 0
4214 2 57.9700034 161.438666579022 1.04689075 0 0 0
4215 2 59.6750035 176.20440007902198 1.04689075 0 0 0
4216 1 54.559986149999006 163.407470420978 1.04689075 0 0 0
4217 1 52.855003100000005 166.360587589511 1.04689075 0 0 0
4218 1 51.150003000000005 169.313734289511 1.04689075 0 0 0
4219 1 57.9700034 163.407470420978 1.04689075 0 0 0
4220 1 56.264986249999005 166.360587589511 1.04689075 0 0 0
4221 1 54.559986149999006 169.313734289511 1.04689075 0 0 0
4222 1 52.855003100000005 172.26688098951098 1.04689075 0 0 0
4223 1 51.150003000000005 175.220057220978 1.04689075 0 0 0
4224 2 61.380020650001 173.25128291048898 1.04689075 0 0 0
4225 2 51.150003000000005 167.344989510489 1.04689075 0 0 0
4226 2 56.265020350001 164.391813279022 1.04689075 0 0 0
4227 2 54.560003200000004 167.344989510489 1.04689075 0 0 0
4228 2 52.855020150001 170.298136210489 1.04689075 0 0 0
4229 2 51.150003000000005 173.25128291048898 1.04689075 0 0 0
4230 1 66.49498684999901 154.54800078951098 1.04689075 0 0 0
4231 1 64.789986749999 157.501177020978 1.04689075 0 0 0
4232 1 63.084986649999 160.454294189511 1.04689075 0 0 0
4233 1 66.49498684999901 160.454294189511 1.04689075 0 0 0
4234 2 66.4950039 152.579226479022 1.04689075 0 0 0
4235 2 64.790020850001 155.532373179022 1.04689075 0 0 0
4236 2 63.08502075000101 158.485549410489 1.04689075 0 0 0
4237 2 61.380020650001 161.438666579022 1.04689075 0 0 0
4238 2 66.4950039 158.485549410489 1.04689075 0 0 0
4239 2 64.790020850001 161.438666579022 1.04689075 0 0 0
4240 1 61.3800036 163.407470420978 1.04689075 0 0 0
4241 1 59.674986449999004 166.360587589511 1.04689075 0 0 0
4242 1 57.9700034 169.313734289511 1.04689075 0 0 0
4243 1 56.264986249999005 172.26688098951098 1.04689075 0 0 0
4244 1 54.559986149999006 175.220057220978 1.04689075 0 0 0
4245 1 64.789986749999 163.407470420978 1.04689075 0 0 0
4246 1 63.084986649999 166.360587589511 1.04689075 0 0 0
4247 1 61.3800036 169.313734289511 1.04689075 0 0 0
4248 1 59.674986449999004 172.26688098951098 1.04689075 0 0 0
4249 1 57.9700034 175.220057220978 1.04689075 0 0 0
4250 1 66.49498684999901 166.360587589511 1.04689075 0 0 0
4251 1 64.789986749999 169.313734289511 1.04689075 0 0 0
4252 1 63.084986649999 172.26688098951098 1.04689075 0 0 0
4253 1 61.3800036 175.220057220978 1.04689075 0 0 0
4254 1 66.49498684999901 172.26688098951098 1.04689075 0 0 0
4255 1 64.789986749999 175.220057220978 1.04689075 0 0 0
4256 2 59.6750035 164.391813279022 1.04689075 0 0 0
4257 2 57.9700034 167.344989510489 1.04689075 0 0 0
4258 2 56.265020350001 170.298136210489 1.04689075 0 0 0
4259 2 54.560003200000004 173.25128291048898 1.04689075 0 0 0
4260 2 52.855020150001 176.20440007902198 1.04689075 0 0 0
4261 2 63.08502075000101 164.391813279022 1.04689075 0 0 0
4262 2 61.380020650001 167.344989510489 1.04689075 0 0 0
4263 2 59.6750035 170.298136210489 1.04689075 0 0 0
4264 2 57.9700034 173.25128291048898 1.04689075 0 0 0
4265 2 56.265020350001 176.20440007902198 1.04689075 0 0 0
4266 2 66.4950039 164.391813279022 1.04689075 0 0 0
4267 2 64.790020850001 167.344989510489 1.04689075 0 0 0
4268 2 63.08502075000101 170.298136210489 1.04689075 0 0 0
4851 1 35.8050021 178.173203920978 1.04689075 0 0 0
4852 1 34.100002 181.126321089511 1.04689075 0 0 0
4853 1 39.214985249999 178.173203920978 1.04689075 0 0 0
4854 1 37.509985149999004 181.126321089511 1.04689075 0 0 0
4855 1 35.8050021 184.079467789511 1.04689075 0 0 0
4856 1 34.100002 187.032644020978 1.04689075 0 0 0
4857 1 42.624985449999 178.173203920978 1.04689075 0 0 0
4858 1 40.9200024 181.126321089511 1.04689075 0 0 0
4859 1 39.214985249999 184.079467789511 1.04689075 0 0 0
4860 1 37.509985149999004 187.032644020978 1.04689075 0 0 0
4861 1 35.8050021 189.985761189511 1.04689075 0 0 0
4862 1 46.034985649999 178.173203920978 1.04689075 0 0 0
4863 1 44.3300026 181.126321089511 1.04689075 0 0 0
4864 1 42.624985449999 184.079467789511 1.04689075 0 0 0
4865 1 40.9200024 187.032644020978 1.04689075 0 0 0
4866 1 39.214985249999 189.985761189511 1.04689075 0 0 0
4867 1 49.444985849999 178.173203920978 1.04689075 0 0 0
4868 1 47.73998574999901 181.126321089511 1.04689075 0 0 0
4869 1 46.034985649999 184.079467789511 1.04689075 0 0 0
4870 1 44.3300026 187.032644020978 1.04689075 0 0 0
4871 1 42.624985449999 189.985761189511 1.04689075 0 0 0
4872 2 34.100002 179.15757631048902 1.04689075 0 0 0
4873 2 37.5100022 179.15757631048902 1.04689075 0 0 0
4874 2 35.805019150001 182.11069347902202 1.04689075 0 0 0
4875 2 34.100002 185.063840179022 1.04689075 0 0 0
4876 2 40.9200024 179.15757631048902 1.04689075 0 0 0
4877 2 39.215019350001 182.11069347902202 1.04689075 0 0 0
4878 2 37.5100022 185.063840179022 1.04689075 0 0 0
4879 2 35.805019150001 188.01701641048902 1.04689075 0 0 0
4880 2 34.100002 190.97013357902202 1.04689075 0 0 0
4881 2 44.330019650001006 179.15757631048902 1.04689075 0 0 0
4882 2 42.62500250000001 182.11069347902202 1.04689075 0 0 0
4883 2 40.9200024 185.063840179022 1.04689075 0 0 0
4884 2 39.215019350001 188.01701641048902 1.04689075 0 0 0
4885 2 37.5100022 190.97013357902202 1.04689075 0 0 0
4886 2 47.740019850001005 179.15757631048902 1.04689075 0 0 0
4887 2 46.035019750001005 182.11069347902202 1.04689075 0 0 0
4888 2 44.330019650001006 185.063840179022 1.04689075 0 0 0
4889 2 42.62500250000001 188.01701641048902 1.04689075 0 0 0
4890 2 40.9200024 190.97013357902202 1.04689075 0 0 0
4891 1 34.100002 192.93893742097802 1.04689075 0 0 0
4892 1 37.509985149999004 192.93893742097802 1.04689075 0 0 0
4893 1 35.8050021 195.89205458951102 1.04689075 0 0 0
4894 1 34.100002 198.845201289511 1.04689075 0 0 0
4895 1 40.9200024 192.93893742097802 1.04689075 0 0 0
4896 1 39.214985249999 195.89205458951102 1.04689075 0 0 0
4897 1 37.509985149999004 198.845201289511 1.04689075 0 0 0
4898 1 35.8050021 201.798347989511 1.04689075 0 0 0
4899 1 34.100002 204.751524220978 1.04689075 0 0 0
4900 2 35.805019150001 193.923280279022 1.04689075 0 0 0
4901 2 34.100002 196.87645651048902 1.04689075 0 0 0
4902 2 39.215019350001 193.923280279022 1.04689075 0 0 0
4903 2 37.5100022 196.87645651048902 1.04689075 0 0 0
4904 2 35.805019150001 199.829603210489 1.04689075 0 0 0
4905 2 34.100002 202.782749910489 1.04689075 0 0 0
4906 1 49.444985849999 184.079467789511 1.04689075 0 0 0
4907 1 47.73998574999901 187.032644020978 1.04689075 0 0 0
4908 1 46.034985649999 189.985761189511 1.04689075 0 0 0
4909 2 66.4950039 205.735867079022 1.04689075 0 0 0
4910 2 49.445002900000006 182.11069347902202 1.04689075 0 0 0
4911 2 47.740019850001005 185.063840179022 1.04689075 0 0 0
4912 2 46.035019750001005 188.01701641048902 1.04689075 0 0 0
4913 2 44.330019650001006 190.97013357902202 1.04689075 0 0 0
4914 2 49.445002900000006 188.01701641048902 1.04689075 0 0 0
4915 2 47.740019850001005 190.97013357902202 1.04689075 0 0 0
4916 1 44.3300026 192.93893742097802 1.04689075 0 0 0
4917 1 42.624985449999 195.89205458951102 1.04689075 0 0 0
4918 1 40.9200024 198.845201289511 1.04689075 0 0 0
4919 1 39.214985249999 201.798347989511 1.04689075 0 0 0
4920 1 37.509985149999004 204.751524220978 1.04689075 0 0 0
4921 1 47.73998574999901 192.93893742097802 1.04689075 0 0 0
4922 1 46.034985649999 195.89205458951102 1.04689075 0 0 0
4923 1 44.3300026 198.845201289511 1.04689075 0 0 0
4924 1 42.624985449999 201.798347989511 1.04689075 0 0 0
4925 1 40.9200024 204.751524220978 1.04689075 0 0 0
4926 1 49.444985849999 195.89205458951102 1.04689075 0 0 0
4927 1 47.73998574999901 198.845201289511 1.04689075 0 0 0
4928 1 46.034985649999 201.798347989511 1.04689075 0 0 0
4929 1 44.3300026 204.751524220978 1.04689075 0 0 0
4930 1 49.444985849999 201.798347989511 1.04689075 0 0 0
4931 1 47.73998574999901 204.751524220978 1.04689075 0 0 0
4932 2 42.62500250000001 193.923280279022 1.04689075 0 0 0
4933 2 40.9200024 196.87645651048902 1.04689075 0 0 0
4934 2 39.215019350001 199.829603210489 1.04689075 0 0 0
4935 2 37.5100022 202.782749910489 1.04689075 0 0 0
4936 2 35.805019150001 205.735867079022 1.04689075 0 0 0
4937 2 46.035019750001005 193.923280279022 1.04689075 0 0 0
4938 2 44.330019650001006 196.87645651048902 1.04689075 0 0 0
4939 2 42.62500250000001 199.829603210489 1.04689075 0 0 0
4940 2 40.9200024 202.782749910489 1.04689075 0 0 0
4941 2 39.215019350001 205.735867079022 1.04689075 0 0 0
4942 2 63.08502075000101 205.735867079022 1.04689075 0 0 0
4943 2 47.740019850001005 196.87645651048902 1.04689075 0 0 0
4944 2 46.035019750001005 199.829603210489 1.04689075 0 0 0
4945 2 44.330019650001006 202.782749910489 1.04689075 0 0 0
4946 2 42.62500250000001 205.735867079022 1.04689075 0 0 0
4947 2 49.445002900000006 199.829603210489 1.04689075 0 0 0
4948 2 47.740019850001005 202.782749910489 1.04689075 0 0 0
4949 2 46.035019750001005 205.735867079022 1.04689075 0 0 0
4950 2 49.445002900000006 205.735867079022 1.04689075 0 0 0
4951 1 52.855003100000005 178.173203920978 1.04689075 0 0 0
4952 1 51.150003000000005 181.126321089511 1.04689075 0 0 0
4953 1 56.264986249999005 178.173203920978 1.04689075 0 0 0
4954 1 54.559986149999006 181.126321089511 1.04689075 0 0 0
4955 1 52.855003100000005 184.079467789511 1.04689075 0 0 0
4956 1 51.150003000000005 187.032644020978 1.04689075 0 0 0
4957 1 59.674986449999004 178.173203920978 1.04689075 0 0 0
4958 1 57.9700034 181.126321089511 1.04689075 0 0 0
4959 1 56.264986249999005 184.079467789511 1.04689075 0 0 0
4960 1 54.559986149999006 187.032644020978 1.04689075 0 0 0
4961 2 64.790020850001 202.782749910489 1.04689075 0 0 0
4962 1 63.084986649999 178.173203920978 1.04689075 0 0 0
4963 1 61.3800036 181.126321089511 1.04689075 0 0 0
4964 1 59.674986449999004 184.079467789511 1.04689075 0 0 0
4965 1 57.9700034 187.032644020978 1.04689075 0 0 0
4966 1 56.264986249999005 189.985761189511 1.04689075 0 0 0
4967 1 66.49498684999901 178.173203920978 1.04689075 0 0 0
4968 1 64.789986749999 181.126321089511 1.04689075 0 0 0
4969 1 63.084986649999 184.079467789511 1.04689075 0 0 0
4970 1 61.3800036 187.032644020978 1.04689075 0 0 0
4971 1 59.674986449999004 189.985761189511 1.04689075 0 0 0
4972 2 51.150003000000005 179.15757631048902 1.04689075 0 0 0
4973 2 54.560003200000004 179.15757631048902 1.04689075 0 0 0
4974 2 52.855020150001 182.11069347902202 1.04689075 0 0 0
4975 2 51.150003000000005 185.063840179022 1.04689075 0 0 0
4976 2 57.9700034 179.15757631048902 1.04689075 0 0 0
4977 2 56.265020350001 182.11069347902202 1.04689075 0 0 0
4978 2 54.560003200000004 185.063840179022 1.04689075 0 0 0
4979 2 52.855020150001 188.01701641048902 1.04689075 0 0 0
4980 2 66.4950039 199.829603210489 1.04689075 0 0 0
4981 2 61.380020650001 179.15757631048902 1.04689075 0 0 0
4982 2 59.6750035 182.11069347902202 1.04689075 0 0 0
4983 2 57.9700034 185.063840179022 1.04689075 0 0 0
4984 2 56.265020350001 188.01701641048902 1.04689075 0 0 0
4985 2 54.560003200000004 190.97013357902202 1.04689075 0 0 0
4986 2 64.790020850001 179.15757631048902 1.04689075 0 0 0
4987 2 63.08502075000101 182.11069347902202 1.04689075 0 0 0
4988 2 61.380020650001 185.063840179022 1.04689075 0 0 0
4989 2 59.6750035 188.01701641048902 1.04689075 0 0 0
4990 2 57.9700034 190.97013357902202 1.04689075 0 0 0
4991 2 59.6750035 205.735867079022 1.04689075 0 0 0
4992 1 54.559986149999006 192.93893742097802 1.04689075 0 0 0
4993 1 52.855003100000005 195.89205458951102 1.04689075 0 0 0
4994 1 51.150003000000005 198.845201289511 1.04689075 0 0 0
4995 1 57.9700034 192.93893742097802 1.04689075 0 0 0
4996 1 56.264986249999005 195.89205458951102 1.04689075 0 0 0
4997 1 54.559986149999006 198.845201289511 1.04689075 0 0 0
4998 1 52.855003100000005 201.798347989511 1.04689075 0 0 0
4999 1 51.150003000000005 204.751524220978 1.04689075 0 0 0
5000 2 61.380020650001 202.782749910489 1.04689075 0 0 0
5001 2 51.150003000000005 196.87645651048902 1.04689075 0 0 0
5002 2 56.265020350001 193.923280279022 1.04689075 0 0 0
5003 2 54.560003200000004 196.87645651048902 1.04689075 0 0 0
5004 2 52.855020150001 199.829603210489 1.04689075 0 0 0
5005 2 51.150003000000005 202.782749910489 1.04689075 0 0 0
5006 1 66.49498684999901 184.079467789511 1.04689075 0 0 0
5007 1 64.789986749999 187.032644020978 1.04689075 0 0 0
5008 1 63.084986649999 189.985761189511 1.04689075 0 0 0
5009 1 66.49498684999901 189.985761189511 1.04689075 0 0 0
5010 2 66.4950039 182.11069347902202 1.04689075 0 0 0
5011 2 64.790020850001 185.063840179022 1.04689075 0 0 0
5012 2 63.08502075000101 188.01701641048902 1.04689075 0 0 0
5013 2 61.380020650001 190.97013357902202 1.04689075 0 0 0
5014 2 66.4950039 188.01701641048902 1.04689075 0 0 0
5015 2 64.790020850001 190.97013357902202 1.04689075 0 0 0
5016 1 61.3800036 192.93893742097802 1.04689075 0 0 0
5017 1 59.674986449999004 195.89205458951102 1.04689075 0 0 0
5018 1 57.9700034 198.845201289511 1.04689075 0 0 0
5019 1 56.264986249999005 201.798347989511 1.04689075 0 0 0
5020 1 54.559986149999006 204.751524220978 1.04689075 0 0 0
5021 1 64.789986749999 192.93893742097802 1.04689075 0 0 0
5022 1 63.084986649999 195.89205458951102 1.04689075 0 0 0
5023 1 61.3800036 198.845201289511 1.04689075 0 0 0
5024 1 59.674986449999004 201.798347989511 1.04689075 0 0 0
5025 1 57.9700034 204.751524220978 1.04689075 0 0 0
5026 1 66.49498684999901 195.89205458951102 1.04689075 0 0 0
5027 1 64.789986749999 198.845201289511 1.04689075 0 0 0
5028 1 63.084986649999 201.798347989511 1.04689075 0 0 0
5029 1 61.3800036 204.751524220978 1.04689075 0 0 0
5030 1 66.49498684999901 201.798347989511 1.04689075 0 0 0
5031 1 64.789986749999 204.751524220978 1.04689075 0 0 0
5032 2 59.6750035 193.923280279022 1.04689075 0 0 0
5033 2 57.9700034 196.87645651048902 1.04689075 0 0 0
5034 2 56.265020350001 199.829603210489 1.04689075 0 0 0
5035 2 54.560003200000004 202.782749910489 1.04689075 0 0 0
5036 2 52.855020150001 205.735867079022 1.04689075 0 0 0
5037 2 63.08502075000101 193.923280279022 1.04689075 0 0 0
5038 2 61.380020650001 196.87645651048902 1.04689075 0 0 0
5039 2 59.6750035 199.829603210489 1.04689075 0 0 0
5040 2 57.9700034 202.782749910489 1.04689075 0 0 0
5041 2 56.265020350001 205.735867079022 1.04689075 0 0 0
5042 2 66.4950039 193.923280279022 1.04689075 0 0 0
5043 2 64.790020850001 196.87645651048902 1.04689075 0 0 0
5044 2 63.08502075000101 199.829603210489 1.04689075 0 0 0
5627 1 35.8050021 207.704670920978 1.04689075 0 0 0
5628 1 34.100002 210.657788089511 1.04689075 0 0 0
5629 1 39.214985249999 207.704670920978 1.04689075 0 0 0
5630 1 37.509985149999004 210.657788089511 1.04689075 0 0 0
5631 1 35.8050021 213.610934789511 1.04689075 0 0 0
5632 1 34.100002 216.564111020978 1.04689075 0 0 0
5633 1 42.624985449999 207.704670920978 1.04689075 0 0 0
5634 1 40.9200024 210.657788089511 1.04689075 0 0 0
5635 1 39.214985249999 213.610934789511 1.04689075 0 0 0
5636 1 37.509985149999004 216.564111020978 1.04689075 0 0 0
5637 1 35.8050021 219.517228189511 1.04689075 0 0 0
5638 1 46.034985649999 207.704670920978 1.04689075 0 0 0
5639 1 44.3300026 210.657788089511 1.04689075 0 0 0
5640 1 42.624985449999 213.610934789511 1.04689075 0 0 0
5641 1 40.9200024 216.564111020978 1.04689075 0 0 0
5642 1 39.214985249999 219.517228189511 1.04689075 0 0 0
5643 1 49.444985849999 207.704670920978 1.04689075 0 0 0
5644 1 47.73998574999901 210.657788089511 1.04689075 0 0 0
5645 1 46.034985649999 213.610934789511 1.04689075 0 0 0
5646 1 44.3300026 216.564111020978 1.04689075 0 0 0
5647 1 42.624985449999 219.517228189511 1.04689075 0 0 0
5648 2 34.100002 208.689043310489 1.04689075 0 0 0
5649 2 37.5100022 208.689043310489 1.04689075 0 0 0
5650 2 35.805019150001 211.642160479022 1.04689075 0 0 0
5651 2 34.100002 214.595307179022 1.04689075 0 0 0
5652 2 40.9200024 208.689043310489 1.04689075 0 0 0
5653 2 39.215019350001 211.642160479022 1.04689075 0 0 0
5654 2 37.5100022 214.595307179022 1.04689075 0 0 0
5655 2 35.805019150001 217.548483410489 1.04689075 0 0 0
5656 2 34.100002 220.501600579022 1.04689075 0 0 0
5657 2 44.330019650001006 208.689043310489 1.04689075 0 0 0
5658 2 42.62500250000001 211.642160479022 1.04689075 0 0 0
5659 2 40.9200024 214.595307179022 1.04689075 0 0 0
5660 2 39.215019350001 217.548483410489 1.04689075 0 0 0
5661 2 37.5100022 220.501600579022 1.04689075 0 0 0
5662 2 47.740019850001005 208.689043310489 1.04689075 0 0 0
5663 2 46.035019750001005 211.642160479022 1.04689075 0 0 0
5664 2 44.330019650001006 214.595307179022 1.04689075 0 0 0
5665 2 42.62500250000001 217.548483410489 1.04689075 0 0 0
5666 2 40.9200024 220.501600579022 1.04689075 0 0 0
5667 1 34.100002 222.470404420978 1.04689075 0 0 0
5668 1 37.509985149999004 222.470404420978 1.04689075 0 0 0
5669 1 35.8050021 225.423521589511 1.04689075 0 0 0
5670 1 34.100002 228.376668289511 1.04689075 0 0 0
5671 1 40.9200024 222.470404420978 1.04689075 0 0 0
5672 1 39.214985249999 225.423521589511 1.04689075 0 0 0
5673 1 37.509985149999004 228.376668289511 1.04689075 0 0 0
5674 1 35.8050021 231.329814989511 1.04689075 0 0 0
5675 1 34.100002 234.282991220978 1.04689075 0 0 0
5676 2 35.805019150001 223.454747279022 1.04689075 0 0 0
5677 2 34.100002 226.407923510489 1.04689075 0 0 0
5678 2 39.215019350001 223.454747279022 1.04689075 0 0 0
5679 2 37.5100022 226.407923510489 1.04689075 0 0 0
5680 2 35.805019150001 229.361070210489 1.04689075 0 0 0
5681 2 34.100002 232.314216910489 1.04689075 0 0 0
5682 1 49.444985849999 213.610934789511 1.04689075 0 0 0
5683 1 47.73998574999901 216.564111020978 1.04689075 0 0 0
5684 1 46.034985649999 219.517228189511 1.04689075 0 0 0
5685 2 66.4950039 235.267334079022 1.04689075 0 0 0
5686 2 49.445002900000006 211.642160479022 1.04689075 0 0 0
5687 2 47.740019850001005 214.595307179022 1.04689075 0 0 0
5688 2 46.035019750001005 217.548483410489 1.04689075 0 0 0
5689 2 44.330019650001006 220.501600579022 1.04689075 0 0 0
5690 2 49.445002900000006 217.548483410489 1.04689075 0 0 0
5691 2 47.740019850001005 220.501600579022 1.04689075 0 0 0
5692 1 44.3300026 222.470404420978 1.04689075 0 0 0
5693 1 42.624985449999 225.423521589511 1.04689075 0 0 0
5694 1 40.9200024 228.376668289511 1.04689075 0 0 0
5695 1 39.214985249999 231.329814989511 1.04689075 0 0 0
5696 1 37.509985149999004 234.282991220978 1.04689075 0 0 0
5697 1 47.73998574999901 222.470404420978 1.04689075 0 0 0
5698 1 46.034985649999 225.423521589511 1.04689075 0 0 0
5699 1 44.3300026 228.376668289511 1.04689075 0 0 0
5700 1 42.624985449999 231.329814989511 1.04689075 0 0 0
5701 1 40.9200024 234.282991220978 1.04689075 0 0 0
5702 1 49.444985849999 225.423521589511 1.04689075 0 0 0
5703 1 47.73998574999901 228.376668289511 1.04689075 0 0 0
5704 1 46.034985649999 231.329814989511 1.04689075 0 0 0
5705 1 44.3300026 234.282991220978 1.04689075 0 0 0
5706 1 49.444985849999 231.329814989511 1.04689075 0 0 0
5707 1 47.73998574999901 234.282991220978 1.04689075 0 0 0
5708 2 42.62500250000001 223.454747279022 1.04689075 0 0 0
5709 2 40.9200024 226.407923510489 1.04689075 0 0 0
5710 2 39.215019350001 229.361070210489 1.04689075 0 0 0
5711 2 37.5100022 232.314216910489 1.04689075 0 0 0
5712 2 35.805019150001 235.267334079022 1.04689075 0 0 0
5713 2 46.035019750001005 223.454747279022 1.04689075 0 0 0
5714 2 44.330019650001006 226.407923510489 1.04689075 0 0 0
5715 2 42.62500250000001 229.361070210489 1.04689075 0 0 0
5716 2 40.9200024 232.314216910489 1.04689075 0 0 0
5717 2 39.215019350001 235.267334079022 1.04689075 0 0 0
5718 2 63.08502075000101 235.267334079022 1.04689075 0 0 0
5719 2 47.740019850001005 226.407923510489 1.04689075 0 0 0
5720 2 46.035019750001005 229.361070210489 1.04689075 0 0 0
5721 2 44.330019650001006 232.314216910489 1.04689075 0 0 0
5722 2 42.62500250000001 235.267334079022 1.04689075 0 0 0
5723 2 49.445002900000006 229.361070210489 1.04689075 0 0 0
5724 2 47.740019850001005 232.314216910489 1.04689075 0 0 0
5725 2 46.035019750001005 235.267334079022 1.04689075 0 0 0
5726 2 49.445002900000006 235.267334079022 1.04689075 0 0 0
5727 1 52.855003100000005 207.704670920978 1.04689075 0 0 0
5728 1 51.150003000000005 210.657788089511 1.04689075 0 0 0
5729 1 56.264986249999005 207.704670920978 1.04689075 0 0 0
5730 1 54.559986149999006 210.657788089511 1.04689075 0 0 0
5731 1 52.855003100000005 213.610934789511 1.04689075 0 0 0
5732 1 51.150003000000005 216.564111020978 1.04689075 0 0 0
5733 1 59.674986449999004 207.704670920978 1.04689075 0 0 0
5734 1 57.9700034 210.657788089511 1.04689075 0 0 0
5735 1 56.264986249999005 213.610934789511 1.04689075 0 0 0
5736 1 54.559986149999006 216.564111020978 1.04689075 0 0 0
5737 2 64.790020850001 232.314216910489 1.04689075 0 0 0
5738 1 63.084986649999 207.704670920978 1.04689075 0 0 0
5739 1 61.3800036 210.657788089511 1.04689075 0 0 0
5740 1 59.674986449999004 213.610934789511 1.04689075 0 0 0
5741 1 57.9700034 216.564111020978 1.04689075 0 0 0
5742 1 56.264986249999005 219.517228189511 1.04689075 0 0 0
5743 1 66.49498684999901 207.704670920978 1.04689075 0 0 0
5744 1 64.789986749999 210.657788089511 1.04689075 0 0 0
5745 1 63.084986649999 213.610934789511 1.04689075 0 0 0
5746 1 61.3800036 216.564111020978 1.04689075 0 0 0
5747 1 59.674986449999004 219.517228189511 1.04689075 0 0 0
5748 2 51.150003000000005 208.689043310489 1.04689075 0 0 0
5749 2 54.560003200000004 208.689043310489 1.04689075 0 0 0
5750 2 52.855020150001 211.642160479022 1.04689075 0 0 0
5751 2 51.150003000000005 214.595307179022 1.04689075 0 0 0
5752 2 57.9700034 208.689043310489 1.04689075 0 0 0
5753 2 56.265020350001 211.642160479022 1.04689075 0 0 0
5754 2 54.560003200000004 214.595307179022 1.04689075 0 0 0
5755 2 52.855020150001 217.548483410489 1.04689075 0 0 0
5756 2 66.4950039 229.361070210489 1.04689075 0 0 0
5757 2 61.380020650001 208.689043310489 1.04689075 0 0 0
5758 2 59.6750035 211.642160479022 1.04689075 0 0 0
5759 2 57.9700034 214.595307179022 1.04689075 0 0 0
5760 2 56.265020350001 217.548483410489 1.04689075 0 0 0
5761 2 54.560003200000004 220.501600579022 1.04689075 0 0 0
5762 2 64.790020850001 208.689043310489 1.04689075 0 0 0
5763 2 63.08502075000101 211.642160479022 1.04689075 0 0 0
5764 2 61.380020650001 214.595307179022 1.04689075 0 0 0
5765 2 59.6750035 217.548483410489 1.04689075 0 0 0
5766 2 57.9700034 220.501600579022 1.04689075 0 0 0
5767 2 59.6750035 235.267334079022 1.04689075 0 0 0
5768 1 54.559986149999006 222.470404420978 1.04689075 0 0 0
5769 1 52.855003100000005 225.423521589511 1.04689075 0 0 0
5770 1 51.150003000000005 228.376668289511 1.04689075 0 0 0
5771 1 57.9700034 222.470404420978 1.04689075 0 0 0
5772 1 56.264986249999005 225.423521589511 1.04689075 0 0 0
5773 1 54.559986149999006 228.376668289511 1.04689075 0 0 0
5774 1 52.855003100000005 231.329814989511 1.04689075 0 0 0
5775 1 51.150003000000005 234.282991220978 1.04689075 0 0 0
5776 2 61.380020650001 232.314216910489 1.04689075 0 0 0
5777 2 51.150003000000005 226.407923510489 1.04689075 0 0 0
5778 2 56.265020350001 223.454747279022 1.04689075 0 0 0
5779 2 54.560003200000004 226.407923510489 1.04689075 0 0 0
5780 2 52.855020150001 229.361070210489 1.04689075 0 0 0
5781 2 51.150003000000005 232.314216910489 1.04689075 0 0 0
5782 1 66.49498684999901 213.610934789511 1.04689075 0 0 0
5783 1 64.789986749999 216.564111020978 1.04689075 0 0 0
5784 1 63.084986649999 219.517228189511 1.04689075 0 0 0
5785 1 66.49498684999901 219.517228189511 1.04689075 0 0 0
5786 2 66.4950039 211.642160479022 1.04689075 0 0 0
5787 2 64.790020850001 214.595307179022 1.04689075 0 0 0
5788 2 63.08502075000101 217.548483410489 1.04689075 0 0 0
5789 2 61.380020650001 220.501600579022 1.04689075 0 0 0
5790 2 66.4950039 217.548483410489 1.04689075 0 0 0
5791 2 64.790020850001 220.501600579022 1.04689075 0 0 0
5792 1 61.3800036 222.470404420978 1.04689075 0 0 0
5793 1 59.674986449999004 225.423521589511 1.04689075 0 0 0
5794 1 57.9700034 228.376668289511 1.04689075 0 0 0
5795 1 56.264986249999005 231.329814989511 1.04689075 0 0 0
5796 1 54.559986149999006 234.282991220978 1.04689075 0 0 0
5797 1 64.789986749999 222.470404420978 1.04689075 0 0 0
5798 1 63.084986649999 225.423521589511 1.04689075 0 0 0
5799 1 61.3800036 228.376668289511 1.04689075 0 0 0
5800 1 59.674986449999004 231.329814989511 1.04689075 0 0 0
5801 1 57.9700034 234.282991220978 1.04689075 0 0 0
5802 1 66.49498684999901 225.423521589511 1.04689075 0 0 0
5803 1 64.789986749999 228.376668289511 1.04689075 0 0 0
5804 1 63.084986649999 231.329814989511 1.04689075 0 0 0
5805 1 61.3800036 234.282991220978 1.04689075 0 0 0
5806 1 66.49498684999901 231.329814989511 1.04689075 0 0 0
5807 1 64.789986749999 234.282991220978 1.04689075 0 0 0
5808 2 59.6750035 223.454747279022 1.04689075 0 0 0
5809 2 57.9700034 226.407923510489 1.04689075 0 0 0
5810 2 56.265020350001 229.361070210489 1.04689075 0 0 0
5811 2 54.560003200000004 232.314216910489 1.04689075 0 0 0
5812 2 52.855020150001 235.267334079022 1.04689075 0 0 0
5813 2 63.08502075000101 223.454747279022 1.04689075 0 0 0
5814 2 61.380020650001 226.407923510489 1.04689075 0 0 0
5815 2 59.6750035 229.361070210489 1.04689075 0 0 0
5816 2 57.9700034 232.314216910489 1.04689075 0 0 0
5817 2 56.265020350001 235.267334079022 1.04689075 0 0 0
5818 2 66.4950039 223.454747279022 1.04689075 0 0 0
5819 2 64.790020850001 226.407923510489 1.04689075 0 0 0
5820 2 63.08502075000101 229.361070210489 1.04689075 0 0 0
6403 1 35.8050021 237.236137920978 1.04689075 0 0 0
6404 1 34.100002 240.189255089511 1.04689075 0 0 0
6405 1 39.214985249999 237.236137920978 1.04689075 0 0 0
6406 1 37.509985149999004 240.189255089511 1.04689075 0 0 0
6407 1 35.8050021 243.14240178951098 1.04689075 0 0 0
6408 1 34.100002 246.095578020978 1.04689075 0 0 0
6409 1 42.624985449999 237.236137920978 1.04689075 0 0 0
6410 1 40.9200024 240.189255089511 1.04689075 0 0 0
6411 1 39.214985249999 243.14240178951098 1.04689075 0 0 0
6412 1 37.509985149999004 246.095578020978 1.04689075 0 0 0
6413 1 35.8050021 249.048695189511 1.04689075 0 0 0
6414 1 46.034985649999 237.236137920978 1.04689075 0 0 0
6415 1 44.3300026 240.189255089511 1.04689075 0 0 0
6416 1 42.624985449999 243.14240178951098 1.04689075 0 0 0
6417 1 40.9200024 246.095578020978 1.04689075 0 0 0
6418 1 39.214985249999 249.048695189511 1.04689075 0 0 0
6419 1 49.444985849999 237.236137920978 1.04689075 0 0 0
6420 1 47.73998574999901 240.189255089511 1.04689075 0 0 0
6421 1 46.034985649999 243.14240178951098 1.04689075 0 0 0
6422 1 44.3300026 246.095578020978 1.04689075 0 0 0
6423 1 42.624985449999 249.048695189511 1.04689075 0 0 0
6424 2 34.100002 238.220510310489 1.04689075 0 0 0
6425 2 37.5100022 238.220510310489 1.04689075 0 0 0
6426 2 35.805019150001 241.173627479022 1.04689075 0 0 0
6427 2 34.100002 244.126774179022 1.04689075 0 0 0
6428 2 40.9200024 238.220510310489 1.04689075 0 0 0
6429 2 39.215019350001 241.173627479022 1.04689075 0 0 0
6430 2 37.5100022 244.126774179022 1.04689075 0 0 0
6431 2 35.805019150001 247.079950410489 1.04689075 0 0 0
6432 2 34.100002 250.033067579022 1.04689075 0 0 0
6433 2 44.330019650001006 238.220510310489 1.04689075 0 0 0
6434 2 42.62500250000001 241.173627479022 1.04689075 0 0 0
6435 2 40.9200024 244.126774179022 1.04689075 0 0 0
6436 2 39.215019350001 247.079950410489 1.04689075 0 0 0
6437 2 37.5100022 250.033067579022 1.04689075 0 0 0
6438 2 47.740019850001005 238.220510310489 1.04689075 0 0 0
6439 2 46.035019750001005 241.173627479022 1.04689075 0 0 0
6440 2 44.330019650001006 244.126774179022 1.04689075 0 0 0
6441 2 42.62500250000001 247.079950410489 1.04689075 0 0 0
6442 2 40.9200024 250.033067579022 1.04689075 0 0 0
6443 1 34.100002 252.001871420978 1.04689075 0 0 0
6444 1 37.509985149999004 252.001871420978 1.04689075 0 0 0
6445 1 35.8050021 254.954988589511 1.04689075 0 0 0
6446 1 34.100002 257.908135289511 1.04689075 0 0 0
6447 1 40.9200024 252.001871420978 1.04689075 0 0 0
6448 1 39.214985249999 254.954988589511 1.04689075 0 0 0
6449 1 37.509985149999004 257.908135289511 1.04689075 0 0 0
6450 1 35.8050021 260.861281989511 1.04689075 0 0 0
6451 1 34.100002 263.814458220978 1.04689075 0 0 0
6452 2 35.805019150001 252.986214279022 1.04689075 0 0 0
6453 2 34.100002 255.939390510489 1.04689075 0 0 0
6454 2 39.215019350001 252.986214279022 1.04689075 0 0 0
6455 2 37.5100022 255.939390510489 1.04689075 0 0 0
6456 2 35.805019150001 258.89253721048897 1.04689075 0 0 0
6457 2 34.100002 261.845683910489 1.04689075 0 0 0
6458 1 49.444985849999 243.14240178951098 1.04689075 0 0 0
6459 1 47.73998574999901 246.095578020978 1.04689075 0 0 0
6460 1 46.034985649999 249.048695189511 1.04689075 0 0 0
6461 2 66.4950039 264.798801079022 1.04689075 0 0 0
6462 2 49.445002900000006 241.173627479022 1.04689075 0 0 0
6463 2 47.740019850001005 244.126774179022 1.04689075 0 0 0
6464 2 46.035019750001005 247.079950410489 1.04689075 0 0 0
6465 2 44.330019650001006 250.033067579022 1.04689075 0 0 0
6466 2 49.445002900000006 247.079950410489 1.04689075 0 0 0
6467 2 47.740019850001005 250.033067579022 1.04689075 0 0 0
6468 1 44.3300026 252.001871420978 1.04689075 0 0 0
6469 1 42.624985449999 254.954988589511 1.04689075 0 0 0
6470 1 40.9200024 257.908135289511 1.04689075 0 0 0
6471 1 39.214985249999 260.861281989511 1.04689075 0 0 0
6472 1 37.509985149999004 263.814458220978 1.04689075 0 0 0
6473 1 47.73998574999901 252.001871420978 1.04689075 0 0 0
6474 1 46.034985649999 254.954988589511 1.04689075 0 0 0
6475 1 44.3300026 257.908135289511 1.04689075 0 0 0
6476 1 42.624985449999 260.861281989511 1.04689075 0 0 0
6477 1 40.9200024 263.814458220978 1.04689075 0 0 0
6478 1 49.444985849999 254.954988589511 1.04689075 0 0 0
6479 1 47.73998574999901 257.908135289511 1.04689075 0 0 0
6480 1 46.034985649999 260.861281989511 1.04689075 0 0 0
6481 1 44.3300026 263.814458220978 1.04689075 0 0 0
6482 1 49.444985849999 260.861281989511 1.04689075 0 0 0
6483 1 47.73998574999901 263.814458220978 1.04689075 0 0 0
6484 2 42.62500250000001 252.986214279022 1.04689075 0 0 0
6485 2 40.9200024 255.939390510489 1.04689075 0 0 0
6486 2 39.215019350001 258.89253721048897 1.04689075 0 0 0
6487 2 37.5100022 261.845683910489 1.04689075 0 0 0
6488 2 35.805019150001 264.798801079022 1.04689075 0 0 0
6489 2 46.035019750001005 252.986214279022 1.04689075 0 0 0
6490 2 44.330019650001006 255.939390510489 1.04689075 0 0 0
6491 2 42.62500250000001 258.89253721048897 1.04689075 0 0 0
6492 2 40.9200024 261.845683910489 1.04689075 0 0 0
6493 2 39.215019350001 264.798801079022 1.04689075 0 0 0
6494 2 63.08502075000101 264.798801079022 1.04689075 0 0 0
6495 2 47.740019850001005 255.939390510489 1.04689075 0 0 0
6496 2 46.035019750001005 258.89253721048897 1.04689075 0 0 0
6497 2 44.330019650001006 261.845683910489 1.04689075 0 0 0
6498 2 42.62500250000001 264.798801079022 1.04689075 0 0 0
6499 2 49.445002900000006 258.89253721048897 1.04689075 0 0 0
6500 2 47.740019850001005 261.845683910489 1.04689075 0 0 0
6501 2 46.035019750001005 264.798801079022 1.04689075 0 0 0
6502 2 49.445002900000006 264.798801079022 1.04689075 0 0 0
6503 1 52.855003100000005 237.236137920978 1.04689075 0 0 0
6504 1 51.150003000000005 240.189255089511 1.04689075 0 0 0
6505 1 56.264986249999005 237.236137920978 1.04689075 0 0 0
6506 1 54.559986149999006 240.189255089511 1.04689075 0 0 0
6507 1 52.855003100000005 243.14240178951098 1.04689075 0 0 0
6508 1 51.150003000000005 246.095578020978 1.04689075 0 0 0
6509 1 59.674986449999004 237.236137920978 1.04689075 0 0 0
6510 1 57.9700034 240.189255089511 1.04689075 0 0 0
6511 1 56.264986249999005 243.14240178951098 1.04689075 0 0 0
6512 1 54.559986149999006 246.095578020978 1.04689075 0 0 0
6513 2 64.790020850001 261.845683910489 1.04689075 0 0 0
6514 1 63.084986649999 237.236137920978 1.04689075 0 0 0
6515 1 61.3800036 240.189255089511 1.04689075 0 0 0
6516 1 59.674986449999004 243.14240178951098 1.04689075 0 0 0
6517 1 57.9700034 246.095578020978 1.04689075 0 0 0
6518 1 56.264986249999005 249.048695189511 1.04689075 0 0 0
6519 1 66.49498684999901 237.236137920978 1.04689075 0 0 0
6520 1 64.789986749999 240.189255089511 1.04689075 0 0 0
6521 1 63.084986649999 243.14240178951098 1.04689075 0 0 0
6522 1 61.3800036 246.095578020978 1.04689075 0 0 0
6523 1 59.674986449999004 249.048695189511 1.04689075 0 0 0
6524 2 51.150003000000005 238.220510310489 1.04689075 0 0 0
6525 2 54.560003200000004 238.220510310489 1.04689075 0 0 0
6526 2 52.855020150001 241.173627479022 1.04689075 0 0 0
6527 2 51.150003000000005 244.126774179022 1.04689075 0 0 0
6528 2 57.9700034 238.220510310489 1.04689075 0 0 0
6529 2 56.265020350001 241.173627479022 1.04689075 0 0 0
6530 2 54.560003200000004 244.126774179022 1.04689075 0 0 0
6531 2 52.855020150001 247.079950410489 1.04689075 0 0 0
6532 2 66.4950039 258.89253721048897 1.04689075 0 0 0
6533 2 61.380020650001 238.220510310489 1.04689075 0 0 0
6534 2 59.6750035 241.173627479022 1.04689075 0 0 0
6535 2 57.9700034 244.126774179022 1.04689075 0 0 0
6536 2 56.265020350001 247.079950410489 1.04689075 0 0 0
6537 2 54.560003200000004 250.033067579022 1.04689075 0 0 0
6538 2 64.790020850001 238.220510310489 1.04689075 0 0 0
6539 2 63.08502075000101 241.173627479022 1.04689075 0 0 0
6540 2 61.380020650001 244.126774179022 1.04689075 0 0 0
6541 2 59.6750035 247.079950410489 1.04689075 0 0 0
6542 2 57.9700034 250.033067579022 1.04689075 0 0 0
6543 2 59.6750035 264.798801079022 1.04689075 0 0 0
6544 1 54.559986149999006 252.001871420978 1.04689075 0 0 0
6545 1 52.855003100000005 254.954988589511 1.04689075 0 0 0
6546 1 51.150003000000005 257.908135289511 1.04689075 0 0 0
6547 1 57.9700034 252.001871420978 1.04689075 0 0 0
6548 1 56.264986249999005 254.954988589511 1.04689075 0 0 0
6549 1 54.559986149999006 257.908135289511 1.04689075 0 0 0
6550 1 52.855003100000005 260.861281989511 1.04689075 0 0 0
6551 1 51.150003000000005 263.814458220978 1.04689075 0 0 0
6552 2 61.380020650001 261.845683910489 1.04689075 0 0 0
6553 2 51.150003000000005 255.939390510489 1.04689075 0 0 0
6554 2 56.265020350001 252.986214279022 1.04689075 0 0 0
6555 2 54.560003200000004 255.939390510489 1.04689075 0 0 0
6556 2 52.855020150001 258.89253721048897 1.04689075 0 0 0
6557 2 51.150003000000005 261.845683910489 1.04689075 0 0 0
6558 1 66.49498684999901 243.14240178951098 1.04689075 0 0 0
6559 1 64.789986749999 246.095578020978 1.04689075 0 0 0
6560 1 63.084986649999 249.048695189511 1.04689075 0 0 0
6561 1 66.49498684999901 249.048695189511 1.04689075 0 0 0
6562 2 66.4950039 241.173627479022 1.04689075 0 0 0
6563 2 64.790020850001 244.126774179022 1.04689075 0 0 0
6564 2 63.08502075000101 247.079950410489 1.04689075 0 0 0
6565 2 61.380020650001 250.033067579022 1.04689075 0 0 0
6566 2 66.4950039 247.079950410489 1.04689075 0 0 0
6567 2 64.790020850001 250.033067579022 1.04689075 0 0 0
6568 1 61.3800036 252.001871420978 1.04689075 0 0 0
6569 1 59.674986449999004 254.954988589511 1.04689075 0 0 0
6570 1 57.9700034 257.908135289511 1.04689075 0 0 0
6571 1 56.264986249999005 260.861281989511 1.04689075 0 0 0
6572 1 54.559986149999006 263.814458220978 1.04689075 0 0 0
6573 1 64.789986749999 252.001871420978 1.04689075 0 0 0
6574 1 63.084986649999 254.954988589511 1.04689075 0 0 0
6575 1 61.3800036 257.908135289511 1.04689075 0 0 0
6576 1 59.674986449999004 260.861281989511 1.04689075 0 0 0
6577 1 57.9700034 263.814458220978 1.04689075 0 0 0
6578 1 66.49498684999901 254.954988589511 1.04689075 0 0 0
6579 1 64.789986749999 257.908135289511 1.04689075 0 0 0
6580 1 63.084986649999 260.861281989511 1.04689075 0 0 0
6581 1 61.3800036 263.814458220978 1.04689075 0 0 0
6582 1 66.49498684999901 260.861281989511 1.04689075 0 0 0
6583 1 64.789986749999 263.814458220978 1.04689075 0 0 0
6584 2 59.6750035 252.986214279022 1.04689075 0 0 0
6585 2 57.9700034 255.939390510489 1.04689075 0 0 0
6586 2 56.265020350001 258.89253721048897 1.04689075 0 0 0
6587 2 54.560003200000004 261.845683910489 1.04689075 0 0 0
6588 2 52.855020150001 264.798801079022 1.04689075 0 0 0
6589 2 63.08502075000101 252.986214279022 1.04689075 0 0 0
6590 2 61.380020650001 255.939390510489 1.04689075 0 0 0
6591 2 59.6750035 258.89253721048897 1.04689075 0 0 0
6592 2 57.9700034 261.845683910489 1.04689075 0 0 0
6593 2 56.265020350001 264.798801079022 1.04689075 0 0 0
6594 2 66.4950039 252.986214279022 1.04689075 0 0 0
6595 2 64.790020850001 255.939390510489 1.04689075 0 0 0
6596 2 63.08502075000101 258.89253721048897 1.04689075 0 0 0
7179 1 35.8050021 266.767604920978 1.04689075 0 0 0
7180 1 34.100002 269.720722089511 1.04689075 0 0 0
7181 1 39.214985249999 266.767604920978 1.04689075 0 0 0
7182 1 37.509985149999004 269.720722089511 1.04689075 0 0 0
7183 1 35.8050021 272.673868789511 1.04689075 0 0 0
7184 1 34.100002 275.627045020978 1.04689075 0 0 0
7185 1 42.624985449999 266.767604920978 1.04689075 0 0 0
7186 1 40.9200024 269.720722089511 1.04689075 0 0 0
7187 1 39.214985249999 272.673868789511 1.04689075 0 0 0
7188 1 37.509985149999004 275.627045020978 1.04689075 0 0 0
7189 1 35.8050021 278.58016218951104 1.04689075 0 0 0
7190 1 46.034985649999 266.767604920978 1.04689075 0 0 0
7191 1 44.3300026 269.720722089511 1.04689075 0 0 0
7192 1 42.624985449999 272.673868789511 1.04689075 0 0 0
7193 1 40.9200024 275.627045020978 1.04689075 0 0 0
7194 1 39.214985249999 278.58016218951104 1.04689075 0 0 0
7195 1 49.444985849999 266.767604920978 1.04689075 0 0 0
7196 1 47.73998574999901 269.720722089511 1.04689075 0 0 0
7197 1 46.034985649999 272.673868789511 1.04689075 0 0 0
7198 1 44.3300026 275.627045020978 1.04689075 0 0 0
7199 1 42.624985449999 278.58016218951104 1.04689075 0 0 0
7200 2 34.100002 267.751977310489 1.04689075 0 0 0
7201 2 37.5100022 267.751977310489 1.04689075 0 0 0
7202 2 35.805019150001 270.705094479022 1.04689075 0 0 0
7203 2 34.100002 273.658241179022 1.04689075 0 0 0
7204 2 40.9200024 267.751977310489 1.04689075 0 0 0
7205 2 39.215019350001 270.705094479022 1.04689075 0 0 0
7206 2 37.5100022 273.658241179022 1.04689075 0 0 0
7207 2 35.805019150001 276.611417410489 1.04689075 0 0 0
7208 2 34.100002 279.564534579022 1.04689075 0 0 0
7209 2 44.330019650001006 267.751977310489 1.04689075 0 0 0
7210 2 42.62500250000001 270.705094479022 1.04689075 0 0 0
7211 2 40.9200024 273.658241179022 1.04689075 0 0 0
7212 2 39.215019350001 276.611417410489 1.04689075 0 0 0
7213 2 37.5100022 279.564534579022 1.04689075 0 0 0
7214 2 47.740019850001005 267.751977310489 1.04689075 0 0 0
7215 2 46.035019750001005 270.705094479022 1.04689075 0 0 0
7216 2 44.330019650001006 273.658241179022 1.04689075 0 0 0
7217 2 42.62500250000001 276.611417410489 1.04689075 0 0 0
7218 2 40.9200024 279.564534579022 1.04689075 0 0 0
7219 1 34.100002 281.533338420978 1.04689075 0 0 0
7220 1 37.509985149999004 281.533338420978 1.04689075 0 0 0
7221 1 35.8050021 284.486455589511 1.04689075 0 0 0
7222 1 34.100002 287.439602289511 1.04689075 0 0 0
7223 1 40.9200024 281.533338420978 1.04689075 0 0 0
7224 1 39.214985249999 284.486455589511 1.04689075 0 0 0
7225 1 37.509985149999004 287.439602289511 1.04689075 0 0 0
7226 1 35.8050021 290.392748989511 1.04689075 0 0 0
7227 1 34.100002 293.345925220978 1.04689075 0 0 0
7228 2 35.805019150001 282.517681279022 1.04689075 0 0 0
7229 2 34.100002 285.470857510489 1.04689075 0 0 0
7230 2 39.215019350001 282.517681279022 1.04689075 0 0 0
7231 2 37.5100022 285.470857510489 1.04689075 0 0 0
7232 2 35.805019150001 288.424004210489 1.04689075 0 0 0
7233 2 34.100002 291.37715091048904 1.04689075 0 0 0
7234 1 49.444985849999 272.673868789511 1.04689075 0 0 0
7235 1 47.73998574999901 275.627045020978 1.04689075 0 0 0
7236 1 46.034985649999 278.58016218951104 1.04689075 0 0 0
7237 2 66.4950039 294.330268079022 1.04689075 0 0 0
7238 2 49.445002900000006 270.705094479022 1.04689075 0 0 0
7239 2 47.740019850001005 273.658241179022 1.04689075 0 0 0
7240 2 46.035019750001005 276.611417410489 1.04689075 0 0 0
7241 2 44.330019650001006 279.564534579022 1.04689075 0 0 0
7242 2 49.445002900000006 276.611417410489 1.04689075 0 0 0
7243 2 47.740019850001005 279.564534579022 1.04689075 0 0 0
7244 1 44.3300026 281.533338420978 1.04689075 0 0 0
7245 1 42.624985449999 284.486455589511 1.04689075 0 0 0
7246 1 40.9200024 287.439602289511 1.04689075 0 0 0
7247 1 39.214985249999 290.392748989511 1.04689075 0 0 0
7248 1 37.509985149999004 293.345925220978 1.04689075 0 0 0
7249 1 47.73998574999901 281.533338420978 1.04689075 0 0 0
7250 1 46.034985649999 284.486455589511 1.04689075 0 0 0
7251 1 44.3300026 287.439602289511 1.04689075 0 0 0
7252 1 42.624985449999 290.392748989511 1.04689075 0 0 0
7253 1 40.9200024 293.345925220978 1.04689075 0 0 0
7254 1 49.444985849999 284.486455589511 1.04689075 0 0 0
7255 1 47.73998574999901 287.439602289511 1.04689075 0 0 0
7256 1 46.034985649999 290.392748989511 1.04689075 0 0 0
7257 1 44.3300026 293.345925220978 1.04689075 0 0 0
7258 1 49.444985849999 290.392748989511 1.04689075 0 0 0
7259 1 47.73998574999901 293.345925220978 1.04689075 0 0 0
7260 2 42.62500250000001 282.517681279022 1.04689075 0 0 0
7261 2 40.9200024 285.470857510489 1.04689075 0 0 0
7262 2 39.215019350001 288.424004210489 1.04689075 0 0 0
7263 2 37.5100022 291.37715091048904 1.04689075 0 0 0
7264 2 35.805019150001 294.330268079022 1.04689075 0 0 0
7265 2 46.035019750001005 282.517681279022 1.04689075 0 0 0
7266 2 44.330019650001006 285.470857510489 1.04689075 0 0 0
7267 2 42.62500250000001 288.424004210489 1.04689075 0 0 0
7268 2 40.9200024 291.37715091048904 1.04689075 0 0 0
7269 2 39.215019350001 294.330268079022 1.04689075 0 0 0
7270 2 63.08502075000101 294.330268079022 1.04689075 0 0 0
7271 2 47.740019850001005 285.470857510489 1.04689075 0 0 0
7272 2 46.035019750001005 288.424004210489 1.04689075 0 0 0
7273 2 44.330019650001006 291.37715091048904 1.04689075 0 0 0
7274 2 42.62500250000001 294.330268079022 1.04689075 0 0 0
7275 2 49.445002900000006 288.424004210489 1.04689075 0 0 0
7276 2 47.740019850001005 291.37715091048904 1.04689075 0 0 0
7277 2 46.035019750001005 294.330268079022 1.04689075 0 0 0
7278 2 49.445002900000006 294.330268079022 1.04689075 0 0 0
7279 1 52.855003100000005 266.767604920978 1.04689075 0 0 0
7280 1 51.150003000000005 269.720722089511 1.04689075 0 0 0
7281 1 56.264986249999005 266.767604920978 1.04689075 0 0 0
7282 1 54.559986149999006 269.720722089511 1.04689075 0 0 0
7283 1 52.855003100000005 272.673868789511 1.04689075 0 0 0
7284 1 51.150003000000005 275.627045020978 1.04689075 0 0 0
7285 1 59.674986449999004 266.767604920978 1.04689075 0 0 0
7286 1 57.9700034 269.720722089511 1.04689075 0 0 0
7287 1 56.264986249999005 272.673868789511 1.04689075 0 0 0
7288 1 54.559986149999006 275.627045020978 1.04689075 0 0 0
7289 2 64.790020850001 291.37715091048904 1.04689075 0 0 0
7290 1 63.084986649999 266.767604920978 1.04689075 0 0 0
7291 1 61.3800036 269.720722089511 1.04689075 0 0 0
7292 1 59.674986449999004 272.673868789511 1.04689075 0 0 0
7293 1 57.9700034 275.627045020978 1.04689075 0 0 0
7294 1 56.264986249999005 278.58016218951104 1.04689075 0 0 0
7295 1 66.49498684999901 266.767604920978 1.04689075 0 0 0
7296 1 64.789986749999 269.720722089511 1.04689075 0 0 0
7297 1 63.084986649999 272.673868789511 1.04689075 0 0 0
7298 1 61.3800036 275.627045020978 1.04689075 0 0 0
7299 1 59.674986449999004 278.58016218951104 1.04689075 0 0 0
7300 2 51.150003000000005 267.751977310489 1.04689075 0 0 0
7301 2 54.560003200000004 267.751977310489 1.04689075 0 0 0
7302 2 52.855020150001 270.705094479022 1.04689075 0 0 0
7303 2 51.150003000000005 273.658241179022 1.04689075 0 0 0
7304 2 57.9700034 267.751977310489 1.04689075 0 0 0
7305 2 56.265020350001 270.705094479022 1.04689075 0 0 0
7306 2 54.560003200000004 273.658241179022 1.04689075 0 0 0
7307 2 52.855020150001 276.611417410489 1.04689075 0 0 0
7308 2 66.4950039 288.424004210489 1.04689075 0 0 0
7309 2 61.380020650001 267.751977310489 1.04689075 0 0 0
7310 2 59.6750035 270.705094479022 1.04689075 0 0 0
7311 2 57.9700034 273.658241179022 1.04689075 0 0 0
7312 2 56.265020350001 276.611417410489 1.04689075 0 0 0
7313 2 54.560003200000004 279.564534579022 1.04689075 0 0 0
7314 2 64.790020850001 267.751977310489 1.04689075 0 0 0
7315 2 63.08502075000101 270.705094479022 1.04689075 0 0 0
7316 2 61.380020650001 273.658241179022 1.04689075 0 0 0
7317 2 59.6750035 276.611417410489 1.04689075 0 0 0
7318 2 57.9700034 279.564534579022 1.04689075 0 0 0
7319 2 59.6750035 294.330268079022 1.04689075 0 0 0
7320 1 54.559986149999006 281.533338420978 1.04689075 0 0 0
7321 1 52.855003100000005 284.486455589511 1.04689075 0 0 0
7322 1 51.150003000000005 287.439602289511 1.04689075 0 0 0
7323 1 57.9700034 281.533338420978 1.04689075 0 0 0
7324 1 56.264986249999005 284.486455589511 1.04689075 0 0 0
7325 1 54.559986149999006 287.439602289511 1.04689075 0 0 0
7326 1 52.855003100000005 290.392748989511 1.04689075 0 0 0
7327 1 51.150003000000005 293.345925220978 1.04689075 0 0 0
7328 2 61.380020650001 291.37715091048904 1.04689075 0 0 0
7329 2 51.150003000000005 285.470857510489 1.04689075 0 0 0
7330 2 56.265020350001 282.517681279022 1.04689075 0 0 0
7331 2 54.560003200000004 285.470857510489 1.04689075 0 0 0
7332 2 52.855020150001 288.424004210489 1.04689075 0 0 0
7333 2 51.150003000000005 291.37715091048904 1.04689075 0 0 0
7334 1 66.49498684999901 272.673868789511 1.04689075 0 0 0
7335 1 64.789986749999 275.627045020978 1.04689075 0 0 0
7336 1 63.084986649999 278.58016218951104 1.04689075 0 0 0
7337 1 66.49498684999901 278.58016218951104 1.04689075 0 0 0
7338 2 66.4950039 270.705094479022 1.04689075 0 0 0
7339 2 64.790020850001 273.658241179022 1.04689075 0 0 0
7340 2 63.08502075000101 276.611417410489 1.04689075 0 0 0
7341 2 61.380020650001 279.564534579022 1.04689075 0 0 0
7342 2 66.4950039 276.611417410489 1.04689075 0 0 0
7343 2 64.790020850001 279.564534579022 1.04689075 0 0 0
7344 1 61.3800036 281.533338420978 1.04689075 0 0 0
7345 1 59.674986449999004 284.486455589511 1.04689075 0 0 0
7346 1 57.9700034 287.439602289511 1.04689075 0 0 0
7347 1 56.264986249999005 290.392748989511 1.04689075 0 0 0
7348 1 54.559986149999006 293.345925220978 1.04689075 0 0 0
7349 1 64.789986749999 281.533338420978 1.04689075 0 0 0
7350 1 63.084986649999 284.486455589511 1.04689075 0 0 0
7351 1 61.3800036 287.439602289511 1.04689075 0 0 0
7352 1 59.674986449999004 290.392748989511 1.04689075 0 0 0
7353 1 57.9700034 293.345925220978 1.04689075 0 0 0
7354 1 66.49498684999901 284.486455589511 1.04689075 0 0 0
7355 1 64.789986749999 287.439602289511 1.04689075 0 0 0
7356 1 63.084986649999 290.392748989511 1.04689075 0 0 0
7357 1 61.3800036 293.345925220978 1.04689075 0 0 0
7358 1 66.49498684999901 290.392748989511 1.04689075 0 0 0
7359 1 64.789986749999 293.345925220978 1.04689075 0 0 0
7360 2 59.6750035 282.517681279022 1.04689075 0 0 0
7361 2 57.9700034 285.470857510489 1.04689075 0 0 0
7362 2 56.265020350001 288.424004210489 1.04689075 0 0 0
7363 2 54.560003200000004 291.37715091048904 1.04689075 0 0 0
7364 2 52.855020150001 294.330268079022 1.04689075 0 0 0
7365 2 63.08502075000101 282.517681279022 1.04689075 0 0 0
7366 2 61.380020650001 285.470857510489 1.04689075 0 0 0
7367 2 59.6750035 288.424004210489 1.04689075 0 0 0
7368 2 57.9700034 291.37715091048904 1.04689075 0 0 0
7369 2 56.265020350001 294.330268079022 1.04689075 0 0 0
7370 2 66.4950039 282.517681279022 1.04689075 0 0 0
7371 2 64.790020850001 285.470857510489 1.04689075 0 0 0
7372 2 63.08502075000101 288.424004210489 1.04689075 0 0 0
7955 1 35.8050021 296.29907192097795 1.04689075 0 0 0
7956 1 34.100002 299.252189089511 1.04689075 0 0 0
7957 1 39.214985249999 296.29907192097795 1.04689075 0 0 0
7958 1 37.509985149999004 299.252189089511 1.04689075 0 0 0
7959 1 35.8050021 302.20533578951097 1.04689075 0 0 0
7960 1 34.100002 305.158512020978 1.04689075 0 0 0
7961 1 42.624985449999 296.29907192097795 1.04689075 0 0 0
7962 1 40.9200024 299.252189089511 1.04689075 0 0 0
7963 1 39.214985249999 302.20533578951097 1.04689075 0 0 0
7964 1 37.509985149999004 305.158512020978 1.04689075 0 0 0
7965 1 35.8050021 308.11162918951095 1.04689075 0 0 0
7966 1 46.034985649999 296.29907192097795 1.04689075 0 0 0
7967 1 44.3300026 299.252189089511 1.04689075 0 0 0
7968 1 42.624985449999 302.20533578951097 1.04689075 0 0 0
7969 1 40.9200024 305.158512020978 1.04689075 0 0 0
7970 1 39.214985249999 308.11162918951095 1.04689075 0 0 0
7971 1 49.444985849999 296.29907192097795 1.04689075 0 0 0
7972 1 47.73998574999901 299.252189089511 1.04689075 0 0 0
7973 1 46.034985649999 302.20533578951097 1.04689075 0 0 0
7974 1 44.3300026 305.158512020978 1.04689075 0 0 0
7975 1 42.624985449999 308.11162918951095 1.04689075 0 0 0
7976 2 34.100002 297.28344431048896 1.04689075 0 0 0
7977 2 37.5100022 297.28344431048896 1.04689075 0 0 0
7978 2 35.805019150001 300.236561479022 1.04689075 0 0 0
7979 2 34.100002 303.189708179022 1.04689075 0 0 0
7980 2 40.9200024 297.28344431048896 1.04689075 0 0 0
7981 2 39.215019350001 300.236561479022 1.04689075 0 0 0
7982 2 37.5100022 303.189708179022 1.04689075 0 0 0
7983 2 35.805019150001 306.142884410489 1.04689075 0 0 0
7984 2 34.100002 309.09600157902196 1.04689075 0 0 0
7985 2 44.330019650001006 297.28344431048896 1.04689075 0 0 0
7986 2 42.62500250000001 300.236561479022 1.04689075 0 0 0
7987 2 40.9200024 303.189708179022 1.04689075 0 0 0
7988 2 39.215019350001 306.142884410489 1.04689075 0 0 0
7989 2 37.5100022 309.09600157902196 1.04689075 0 0 0
7990 2 47.740019850001005 297.28344431048896 1.04689075 0 0 0
7991 2 46.035019750001005 300.236561479022 1.04689075 0 0 0
7992 2 44.330019650001006 303.189708179022 1.04689075 0 0 0
7993 2 42.62500250000001 306.142884410489 1.04689075 0 0 0
7994 2 40.9200024 309.09600157902196 1.04689075 0 0 0
7995 1 34.100002 311.06480542097796 1.04689075 0 0 0
7996 1 37.509985149999004 311.06480542097796 1.04689075 0 0 0
7997 1 35.8050021 314.017922589511 1.04689075 0 0 0
7998 1 34.100002 316.971069289511 1.04689075 0 0 0
7999 1 40.9200024 311.06480542097796 1.04689075 0 0 0
8000 1 39.214985249999 314.017922589511 1.04689075 0 0 0
8001 1 37.509985149999004 316.971069289511 1.04689075 0 0 0
8002 1 35.8050021 319.92421598951097 1.04689075 0 0 0
8003 1 34.100002 322.877392220978 1.04689075 0 0 0
8004 2 35.805019150001 312.049148279022 1.04689075 0 0 0
8005 2 34.100002 315.00232451048896 1.04689075 0 0 0
8006 2 39.215019350001 312.049148279022 1.04689075 0 0 0
8007 2 37.5100022 315.00232451048896 1.04689075 0 0 0
8008 2 35.805019150001 317.95547121048895 1.04689075 0 0 0
8009 2 34.100002 320.908617910489 1.04689075 0 0 0
8010 1 49.444985849999 302.20533578951097 1.04689075 0 0 0
8011 1 47.73998574999901 305.158512020978 1.04689075 0 0 0
8012 1 46.034985649999 308.11162918951095 1.04689075 0 0 0
8013 2 66.4950039 323.86173507902197 1.04689075 0 0 0
8014 2 49.445002900000006 300.236561479022 1.04689075 0 0 0
8015 2 47.740019850001005 303.189708179022 1.04689075 0 0 0
8016 2 46.035019750001005 306.142884410489 1.04689075 0 0 0
8017 2 44.330019650001006 309.09600157902196 1.04689075 0 0 0
8018 2 49.445002900000006 306.142884410489 1.04689075 0 0 0
8019 2 47.740019850001005 309.09600157902196 1.04689075 0 0 0
8020 1 44.3300026 311.06480542097796 1.04689075 0 0 0
8021 1 42.624985449999 314.017922589511 1.04689075 0 0 0
8022 1 40.9200024 316.971069289511 1.04689075 0 0 0
8023 1 39.214985249999 319.92421598951097 1.04689075 0 0 0
8024 1 37.509985149999004 322.877392220978 1.04689075 0 0 0
8025 1 47.73998574999901 311.06480542097796 1.04689075 0 0 0
8026 1 46.034985649999 314.017922589511 1.04689075 0 0 0
8027 1 44.3300026 316.971069289511 1.04689075 0 0 0
8028 1 42.624985449999 319.92421598951097 1.04689075 0 0 0
8029 1 40.9200024 322.877392220978 1.04689075 0 0 0
8030 1 49.444985849999 314.017922589511 1.04689075 0 0 0
8031 1 47.73998574999901 316.971069289511 1.04689075 0 0 0
8032 1 46.034985649999 319.92421598951097 1.04689075 0 0 0
8033 1 44.3300026 322.877392220978 1.04689075 0 0 0
8034 1 49.444985849999 319.92421598951097 1.04689075 0 0 0
8035 1 47.73998574999901 322.877392220978 1.04689075 0 0 0
8036 2 42.62500250000001 312.049148279022 1.04689075 0 0 0
8037 2 40.9200024 315.00232451048896 1.04689075 0 0 0
8038 2 39.215019350001 317.95547121048895 1.04689075 0 0 0
8039 2 37.5100022 320.908617910489 1.04689075 0 0 0
8040 2 35.805019150001 323.86173507902197 1.04689075 0 0 0
8041 2 46.035019750001005 312.049148279022 1.04689075 0 0 0
8042 2 44.330019650001006 315.00232451048896 1.04689075 0 0 0
8043 2 42.62500250000001 317.95547121048895 1.04689075 0 0 0
8044 2 40.9200024 320.908617910489 1.04689075 0 0 0
8045 2 39.215019350001 323.86173507902197 1.04689075 0 0 0
8046 2 63.08502075000101 323.86173507902197 1.04689075 0 0 0
8047 2 47.740019850001005 315.00232451048896 1.04689075 0 0 0
8048 2 46.035019750001005 317.95547121048895 1.04689075 0 0 0
8049 2 44.330019650001006 320.908617910489 1.04689075 0 0 0
8050 2 42.62500250000001 323.86173507902197 1.04689075 0 0 0
8051 2 49.445002900000006 317.95547121048895 1.04689075 0 0 0
8052 2 47.740019850001005 320.908617910489 1.04689075 0 0 0
8053 2 46.035019750001005 323.86173507902197 1.04689075 0 0 0
8054 2 49.445002900000006 323.86173507902197 1.04689075 0 0 0
8055 1 52.855003100000005 296.29907192097795 1.04689075 0 0 0
8056 1 51.150003000000005 299.252189089511 1.04689075 0 0 0
8057 1 56.264986249999005 296.29907192097795 1.04689075 0 0 0
8058 1 54.559986149999006 299.252189089511 1.04689075 0 0 0
8059 1 52.855003100000005 302.20533578951097 1.04689075 0 0 0
8060 1 51.150003000000005 305.158512020978 1.04689075 0 0 0
8061 1 59.674986449999004 296.29907192097795 1.04689075 0 0 0
8062 1 57.9700034 299.252189089511 1.04689075 0 0 0
8063 1 56.264986249999005 302.20533578951097 1.04689075 0 0 0
8064 1 54.559986149999006 305.158512020978 1.04689075 0 0 0
8065 2 64.790020850001 320.908617910489 1.04689075 0 0 0
8066 1 63.084986649999 296.29907192097795 1.04689075 0 0 0
8067 1 61.3800036 299.252189089511 1.04689075 0 0 0
8068 1 59.674986449999004 302.20533578951097 1.04689075 0 0 0
8069 1 57.9700034 305.158512020978 1.04689075 0 0 0
8070 1 56.264986249999005 308.11162918951095 1.04689075 0 0 0
8071 1 66.49498684999901 296.29907192097795 1.04689075 0 0 0
8072 1 64.789986749999 299.252189089511 1.04689075 0 0 0
8073 1 63.084986649999 302.20533578951097 1.04689075 0 0 0
8074 1 61.3800036 305.158512020978 1.04689075 0 0 0
8075 1 59.674986449999004 308.11162918951095 1.04689075 0 0 0
8076 2 51.150003000000005 297.28344431048896 1.04689075 0 0 0
8077 2 54.560003200000004 297.28344431048896 1.04689075 0 0 0
8078 2 52.855020150001 300.236561479022 1.04689075 0 0 0
8079 2 51.150003000000005 303.189708179022 1.04689075 0 0 0
8080 2 57.9700034 297.28344431048896 1.04689075 0 0 0
8081 2 56.265020350001 300.236561479022 1.04689075 0 0 0
8082 2 54.560003200000004 303.189708179022 1.04689075 0 0 0
8083 2 52.855020150001 306.142884410489 1.04689075 0 0 0
8084 2 66.4950039 317.95547121048895 1.04689075 0 0 0
8085 2 61.380020650001 297.28344431048896 1.04689075 0 0 0
8086 2 59.6750035 300.236561479022 1.04689075 0 0 0
8087 2 57.9700034 303.189708179022 1.04689075 0 0 0
8088 2 56.265020350001 306.142884410489 1.04689075 0 0 0
8089 2 54.560003200000004 309.09600157902196 1.04689075 0 0 0
8090 2 64.790020850001 297.28344431048896 1.04689075 0 0 0
8091 2 63.08502075000101 300.236561479022 1.04689075 0 0 0
8092 2 61.380020650001 303.189708179022 1.04689075 0 0 0
8093 2 59.6750035 306.142884410489 1.04689075 0 0 0
8094 2 57.9700034 309.09600157902196 1.04689075 0 0 0
8095 2 59.6750035 323.86173507902197 1.04689075 0 0 0
8096 1 54.559986149999006 311.06480542097796 1.04689075 0 0 0
8097 1 52.855003100000005 314.017922589511 1.04689075 0 0 0
8098 1 51.150003000000005 316.971069289511 1.04689075 0 0 0
8099 1 57.9700034 311.06480542097796 1.04689075 0 0 0
8100 1 56.264986249999005 314.017922589511 1.04689075 0 0 0
8101 1 54.559986149999006 316.971069289511 1.04689075 0 0 0
8102 1 52.855003100000005 319.92421598951097 1.04689075 0 0 0
8103 1 51.150003000000005 322.877392220978 1.04689075 0 0 0
8104 2 61.380020650001 320.908617910489 1.04689075 0 0 0
8105 2 51.150003000000005 315.00232451048896 1.04689075 0 0 0
8106 2 56.265020350001 312.049148279022 1.04689075 0 0 0
8107 2 54.560003200000004 315.00232451048896 1.04689075 0 0 0
8108 2 52.855020150001 317.95547121048895 1.04689075 0 0 0
8109 2 51.150003000000005 320.908617910489 1.04689075 0 0 0
8110 1 66.49498684999901 302.20533578951097 1.04689075 0 0 0
8111 1 64.789986749999 305.158512020978 1.04689075 0 0 0
8112 1 63.084986649999 308.11162918951095 1.04689075 0 0 0
8113 1 66.49498684999901 308.11162918951095 1.04689075 0 0 0
8114 2 66.4950039 300.236561479022 1.04689075 0 0 0
8115 2 64.790020850001 303.189708179022 1.04689075 0 0 0
8116 2 63.08502075000101 306.142884410489 1.04689075 0 0 0
8117 2 61.380020650001 309.09600157902196 1.04689075 0 0 0
8118 2 66.4950039 306.142884410489 1.04689075 0 0 0
8119 2 64.790020850001 309.09600157902196 1.04689075 0 0 0
8120 1 61.3800036 311.06480542097796 1.04689075 0 0 0
8121 1 59.674986449999004 314.017922589511 1.04689075 0 0 0
8122 1 57.9700034 316.971069289511 1.04689075 0 0 0
8123 1 56.264986249999005 319.92421598951097 1.04689075 0 0 0
8124 1 54.559986149999006 322.877392220978 1.04689075 0 0 0
8125 1 64.789986749999 311.06480542097796 1.04689075 0 0 0
8126 1 63.084986649999 314.017922589511 1.04689075 0 0 0
8127 1 61.3800036 316.971069289511 1.04689075 0 0 0
8128 1 59.674986449999004 319.92421598951097 1.04689075 0 0 0
8129 1 57.9700034 322.877392220978 1.04689075 0 0 0
8130 1 66.49498684999901 314.017922589511 1.04689075 0 0 0
8131 1 64.789986749999 316.971069289511 1.04689075 0 0 0
8132 1 63.084986649999 319.92421598951097 1.04689075 0 0 0
8133 1 61.3800036 322.877392220978 1.04689075 0 0 0
8134 1 66.49498684999901 319.92421598951097 1.04689075 0 0 0
8135 1 64.789986749999 322.877392220978 1.04689075 0 0 0
8136 2 59.6750035 312.049148279022 1.04689075 0 0 0
8137 2 57.9700034 315.00232451048896 1.04689075 0 0 0
8138 2 56.265020350001 317.95547121048895 1.04689075 0 0 0
8139 2 54.560003200000004 320.908617910489 1.04689075 0 0 0
8140 2 52.855020150001 323.86173507902197 1.04689075 0 0 0
8141 2 63.08502075000101 312.049148279022 1.04689075 0 0 0
8142 2 61.380020650001 315.00232451048896 1.04689075 0 0 0
8143 2 59.6750035 317.95547121048895 1.04689075 0 0 0
8144 2 57.9700034 320.908617910489 1.04689075 0 0 0
8145 2 56.265020350001 323.86173507902197 1.04689075 0 0 0
8146 2 66.4950039 312.049148279022 1.04689075 0 0 0
8147 2 64.790020850001 315.00232451048896 1.04689075 0 0 0
8148 2 63.08502075000101 317.95547121048895 1.04689075 0 0 0
389 1 69.90500410000001 0.984401920978 1.04689075 0 0 0
390 1 68.200004 3.937519089511 1.04689075 0 0 0
391 1 73.314987249999 0.984401920978 1.04689075 0 0 0
392 1 71.609987149999 3.937519089511 1.04689075 0 0 0
393 1 69.90500410000001 6.890665789511 1.04689075 0 0 0
394 1 68.200004 9.843842020978 1.04689075 0 0 0
395 1 76.724987449999 0.984401920978 1.04689075 0 0 0
396 1 75.0200044 3.937519089511 1.04689075 0 0 0
397 1 73.314987249999 6.890665789511 1.04689075 0 0 0
398 1 71.609987149999 9.843842020978 1.04689075 0 0 0
399 1 69.90500410000001 12.796959189511 1.04689075 0 0 0
400 1 80.134987649999 0.984401920978 1.04689075 0 0 0
401 1 78.4300046 3.937519089511 1.04689075 0 0 0
402 1 76.724987449999 6.890665789511 1.04689075 0 0 0
403 1 75.0200044 9.843842020978 1.04689075 0 0 0
404 1 73.314987249999 12.796959189511 1.04689075 0 0 0
405 1 83.544987849999 0.984401920978 1.04689075 0 0 0
406 1 81.83998774999901 3.937519089511 1.04689075 0 0 0
407 1 80.134987649999 6.890665789511 1.04689075 0 0 0
408 1 78.4300046 9.843842020978 1.04689075 0 0 0
409 1 76.724987449999 12.796959189511 1.04689075 0 0 0
410 2 68.200004 1.968774310489 1.04689075 0 0 0
411 2 71.6100042 1.968774310489 1.04689075 0 0 0
412 2 69.905021150001 4.921891479022 1.04689075 0 0 0
413 2 68.200004 7.875038179022 1.04689075 0 0 0
414 2 75.0200044 1.968774310489 1.04689075 0 0 0
415 2 73.315021350001 4.921891479022 1.04689075 0 0 0
416 2 71.6100042 7.875038179022 1.04689075 0 0 0
417 2 69.905021150001 10.828214410489 1.04689075 0 0 0
418 2 68.200004 13.781331579022 1.04689075 0 0 0
419 2 78.43002165000101 1.968774310489 1.04689075 0 0 0
420 2 76.72500450000001 4.921891479022 1.04689075 0 0 0
421 2 75.0200044 7.875038179022 1.04689075 0 0 0
422 2 73.315021350001 10.828214410489 1.04689075 0 0 0
423 2 71.6100042 13.781331579022 1.04689075 0 0 0
424 2 81.84002185000101 1.968774310489 1.04689075 0 0 0
425 2 80.135021750001 4.921891479022 1.04689075 0 0 0
426 2 78.43002165000101 7.875038179022 1.04689075 0 0 0
427 2 76.72500450000001 10.828214410489 1.04689075 0 0 0
428 2 75.0200044 13.781331579022 1.04689075 0 0 0
429 1 68.200004 15.750135420978 1.04689075 0 0 0
430 1 71.609987149999 15.750135420978 1.04689075 0 0 0
431 1 69.90500410000001 18.703252589511 1.04689075 0 0 0
432 1 68.200004 21.656399289511 1.04689075 0 0 0
433 1 75.0200044 15.750135420978 1.04689075 0 0 0
434 1 73.314987249999 18.703252589511 1.04689075 0 0 0
435 1 71.609987149999 21.656399289511 1.04689075 0 0 0
436 1 69.90500410000001 24.609545989511 1.04689075 0 0 0
437 1 68.200004 27.562722220978 1.04689075 0 0 0
438 2 69.905021150001 16.734478279022 1.04689075 0 0 0
439 2 68.200004 19.687654510489 1.04689075 0 0 0
440 2 73.315021350001 16.734478279022 1.04689075 0 0 0
441 2 71.6100042 19.687654510489 1.04689075 0 0 0
442 2 69.905021150001 22.640801210489 1.04689075 0 0 0
443 2 68.200004 25.593947910489 1.04689075 0 0 0
444 1 83.544987849999 6.890665789511 1.04689075 0 0 0
445 1 81.83998774999901 9.843842020978 1.04689075 0 0 0
446 1 80.134987649999 12.796959189511 1.04689075 0 0 0
447 2 100.5950059 28.547065079022 1.04689075 0 0 0
448 2 83.54500490000001 4.921891479022 1.04689075 0 0 0
449 2 81.84002185000101 7.875038179022 1.04689075 0 0 0
450 2 80.135021750001 10.828214410489 1.04689075 0 0 0
451 2 78.43002165000101 13.781331579022 1.04689075 0 0 0
452 2 83.54500490000001 10.828214410489 1.04689075 0 0 0
453 2 81.84002185000101 13.781331579022 1.04689075 0 0 0
454 1 78.4300046 15.750135420978 1.04689075 0 0 0
455 1 76.724987449999 18.703252589511 1.04689075 0 0 0
456 1 75.0200044 21.656399289511 1.04689075 0 0 0
457 1 73.314987249999 24.609545989511 1.04689075 0 0 0
458 1 71.609987149999 27.562722220978 1.04689075 0 0 0
459 1 81.83998774999901 15.750135420978 1.04689075 0 0 0
460 1 80.134987649999 18.703252589511 1.04689075 0 0 0
461 1 78.4300046 21.656399289511 1.04689075 0 0 0
462 1 76.724987449999 24.609545989511 1.04689075 0 0 0
463 1 75.0200044 27.562722220978 1.04689075 0 0 0
464 1 83.544987849999 18.703252589511 1.04689075 0 0 0
465 1 81.83998774999901 21.656399289511 1.04689075 0 0 0
466 1 80.134987649999 24.609545989511 1.04689075 0 0 0
467 1 78.4300046 27.562722220978 1.04689075 0 0 0
468 1 83.544987849999 24.609545989511 1.04689075 0 0 0
469 1 81.83998774999901 27.562722220978 1.04689075 0 0 0
470 2 76.72500450000001 16.734478279022 1.04689075 0 0 0
471 2 75.0200044 19.687654510489 1.04689075 0 0 0
472 2 73.315021350001 22.640801210489 1.04689075 0 0 0
473 2 71.6100042 25.593947910489 1.04689075 0 0 0
474 2 69.905021150001 28.547065079022 1.04689075 0 0 0
475 2 80.135021750001 16.734478279022 1.04689075 0 0 0
476 2 78.43002165000101 19.687654510489 1.04689075 0 0 0
477 2 76.72500450000001 22.640801210489 1.04689075 0 0 0
478 2 75.0200044 25.593947910489 1.04689075 0 0 0
479 2 73.315021350001 28.547065079022 1.04689075 0 0 0
480 2 97.18502275000101 28.547065079022 1.04689075 0 0 0
481 2 81.84002185000101 19.687654510489 1.04689075 0 0 0
482 2 80.135021750001 22.640801210489 1.04689075 0 0 0
483 2 78.43002165000101 25.593947910489 1.04689075 0 0 0
484 2 76.72500450000001 28.547065079022 1.04689075 0 0 0
485 2 83.54500490000001 22.640801210489 1.04689075 0 0 0
486 2 81.84002185000101 25.593947910489 1.04689075 0 0 0
487 2 80.135021750001 28.547065079022 1.04689075 0 0 0
488 2 83.54500490000001 28.547065079022 1.04689075 0 0 0
489 1 86.95500510000001 0.984401920978 1.04689075 0 0 0
490 1 85.25000500000002 3.937519089511 1.04689075 0 0 0
491 1 90.36498824999902 0.984401920978 1.04689075 0 0 0
492 1 88.65998814999901 3.937519089511 1.04689075 0 0 0
493 1 86.95500510000001 6.890665789511 1.04689075 0 0 0
494 1 85.25000500000002 9.843842020978 1.04689075 0 0 0
495 1 93.774988449999 0.984401920978 1.04689075 0 0 0
496 1 92.07000540000001 3.937519089511 1.04689075 0 0 0
497 1 90.36498824999902 6.890665789511 1.04689075 0 0 0
498 1 88.65998814999901 9.843842020978 1.04689075 0 0 0
499 2 98.890022850001 25.593947910489 1.04689075 0 0 0
500 1 97.18498864999901 0.984401920978 1.04689075 0 0 0
501 1 95.4800056 3.937519089511 1.04689075 0 0 0
502 1 93.774988449999 6.890665789511 1.04689075 0 0 0
503 1 92.07000540000001 9.843842020978 1.04689075 0 0 0
504 1 90.36498824999902 12.796959189511 1.04689075 0 0 0
505 1 100.594988849999 0.984401920978 1.04689075 0 0 0
506 1 98.889988749999 3.937519089511 1.04689075 0 0 0
507 1 97.18498864999901 6.890665789511 1.04689075 0 0 0
508 1 95.4800056 9.843842020978 1.04689075 0 0 0
509 1 93.774988449999 12.796959189511 1.04689075 0 0 0
510 2 85.25000500000002 1.968774310489 1.04689075 0 0 0
511 2 88.6600052 1.968774310489 1.04689075 0 0 0
512 2 86.95502215000101 4.921891479022 1.04689075 0 0 0
513 2 85.25000500000002 7.875038179022 1.04689075 0 0 0
514 2 92.07000540000001 1.968774310489 1.04689075 0 0 0
515 2 90.365022350001 4.921891479022 1.04689075 0 0 0
516 2 88.6600052 7.875038179022 1.04689075 0 0 0
517 2 86.95502215000101 10.828214410489 1.04689075 0 0 0
518 2 100.5950059 22.640801210489 1.04689075 0 0 0
519 2 95.480022650001 1.968774310489 1.04689075 0 0 0
520 2 93.7750055 4.921891479022 1.04689075 0 0 0
521 2 92.07000540000001 7.875038179022 1.04689075 0 0 0
522 2 90.365022350001 10.828214410489 1.04689075 0 0 0
523 2 88.6600052 13.781331579022 1.04689075 0 0 0
524 2 98.890022850001 1.968774310489 1.04689075 0 0 0
525 2 97.18502275000101 4.921891479022 1.04689075 0 0 0
526 2 95.480022650001 7.875038179022 1.04689075 0 0 0
527 2 93.7750055 10.828214410489 1.04689075 0 0 0
528 2 92.07000540000001 13.781331579022 1.04689075 0 0 0
529 2 93.7750055 28.547065079022 1.04689075 0 0 0
530 1 88.65998814999901 15.750135420978 1.04689075 0 0 0
531 1 86.95500510000001 18.703252589511 1.04689075 0 0 0
532 1 85.25000500000002 21.656399289511 1.04689075 0 0 0
533 1 92.07000540000001 15.750135420978 1.04689075 0 0 0
534 1 90.36498824999902 18.703252589511 1.04689075 0 0 0
535 1 88.65998814999901 21.656399289511 1.04689075 0 0 0
536 1 86.95500510000001 24.609545989511 1.04689075 0 0 0
537 1 85.25000500000002 27.562722220978 1.04689075 0 0 0
538 2 95.480022650001 25.593947910489 1.04689075 0 0 0
539 2 85.25000500000002 19.687654510489 1.04689075 0 0 0
540 2 90.365022350001 16.734478279022 1.04689075 0 0 0
541 2 88.6600052 19.687654510489 1.04689075 0 0 0
542 2 86.95502215000101 22.640801210489 1.04689075 0 0 0
543 2 85.25000500000002 25.593947910489 1.04689075 0 0 0
544 1 100.594988849999 6.890665789511 1.04689075 0 0 0
545 1 98.889988749999 9.843842020978 1.04689075 0 0 0
546 1 97.18498864999901 12.796959189511 1.04689075 0 0 0
547 1 100.594988849999 12.796959189511 1.04689075 0 0 0
548 2 100.5950059 4.921891479022 1.04689075 0 0 0
549 2 98.890022850001 7.875038179022 1.04689075 0 0 0
550 2 97.18502275000101 10.828214410489 1.04689075 0 0 0
551 2 95.480022650001 13.781331579022 1.04689075 0 0 0
552 2 100.5950059 10.828214410489 1.04689075 0 0 0
553 2 98.890022850001 13.781331579022 1.04689075 0 0 0
554 1 95.4800056 15.750135420978 1.04689075 0 0 0
555 1 93.774988449999 18.703252589511 1.04689075 0 0 0
556 1 92.07000540000001 21.656399289511 1.04689075 0 0 0
557 1 90.36498824999902 24.609545989511 1.04689075 0 0 0
558 1 88.65998814999901 27.562722220978 1.04689075 0 0 0
559 1 98.889988749999 15.750135420978 1.04689075 0 0 0
560 1 97.18498864999901 18.703252589511 1.04689075 0 0 0
561 1 95.4800056 21.656399289511 1.04689075 0 0 0
562 1 93.774988449999 24.609545989511 1.04689075 0 0 0
563 1 92.07000540000001 27.562722220978 1.04689075 0 0 0
564 1 100.594988849999 18.703252589511 1.04689075 0 0 0
565 1 98.889988749999 21.656399289511 1.04689075 0 0 0
566 1 97.18498864999901 24.609545989511 1.04689075 0 0 0
567 1 95.4800056 27.562722220978 1.04689075 0 0 0
568 1 100.594988849999 24.609545989511 1.04689075 0 0 0
569 1 98.889988749999 27.562722220978 1.04689075 0 0 0
570 2 93.7750055 16.734478279022 1.04689075 0 0 0
571 2 92.07000540000001 19.687654510489 1.04689075 0 0 0
572 2 90.365022350001 22.640801210489 1.04689075 0 0 0
573 2 88.6600052 25.593947910489 1.04689075 0 0 0
574 2 86.95502215000101 28.547065079022 1.04689075 0 0 0
575 2 97.18502275000101 16.734478279022 1.04689075 0 0 0
576 2 95.480022650001 19.687654510489 1.04689075 0 0 0
577 2 93.7750055 22.640801210489 1.04689075 0 0 0
578 2 92.07000540000001 25.593947910489 1.04689075 0 0 0
579 2 90.365022350001 28.547065079022 1.04689075 0 0 0
580 2 100.5950059 16.734478279022 1.04689075 0 0 0
581 2 98.890022850001 19.687654510489 1.04689075 0 0 0
582 2 97.18502275000101 22.640801210489 1.04689075 0 0 0
1165 1 69.90500410000001 30.515868920978 1.04689075 0 0 0
1166 1 68.200004 33.468986089511 1.04689075 0 0 0
1167 1 73.314987249999 30.515868920978 1.04689075 0 0 0
1168 1 71.609987149999 33.468986089511 1.04689075 0 0 0
1169 1 69.90500410000001 36.422132789511 1.04689075 0 0 0
1170 1 68.200004 39.375309020978 1.04689075 0 0 0
1171 1 76.724987449999 30.515868920978 1.04689075 0 0 0
1172 1 75.0200044 33.468986089511 1.04689075 0 0 0
1173 1 73.314987249999 36.422132789511 1.04689075 0 0 0
1174 1 71.609987149999 39.375309020978 1.04689075 0 0 0
1175 1 69.90500410000001 42.328426189511 1.04689075 0 0 0
1176 1 80.134987649999 30.515868920978 1.04689075 0 0 0
1177 1 78.4300046 33.468986089511 1.04689075 0 0 0
1178 1 76.724987449999 36.422132789511 1.04689075 0 0 0
1179 1 75.0200044 39.375309020978 1.04689075 0 0 0
1180 1 73.314987249999 42.328426189511 1.04689075 0 0 0
1181 1 83.544987849999 30.515868920978 1.04689075 0 0 0
1182 1 81.83998774999901 33.468986089511 1.04689075 0 0 0
1183 1 80.134987649999 36.422132789511 1.04689075 0 0 0
1184 1 78.4300046 39.375309020978 1.04689075 0 0 0
1185 1 76.724987449999 42.328426189511 1.04689075 0 0 0
1186 2 68.200004 31.500241310489 1.04689075 0 0 0
1187 2 71.6100042 31.500241310489 1.04689075 0 0 0
1188 2 69.905021150001 34.453358479022 1.04689075 0 0 0
1189 2 68.200004 37.406505179022 1.04689075 0 0 0
1190 2 75.0200044 31.500241310489 1.04689075 0 0 0
1191 2 73.315021350001 34.453358479022 1.04689075 0 0 0
1192 2 71.6100042 37.406505179022 1.04689075 0 0 0
1193 2 69.905021150001 40.359681410489 1.04689075 0 0 0
1194 2 68.200004 43.312798579022 1.04689075 0 0 0
1195 2 78.43002165000101 31.500241310489 1.04689075 0 0 0
1196 2 76.72500450000001 34.453358479022 1.04689075 0 0 0
1197 2 75.0200044 37.406505179022 1.04689075 0 0 0
1198 2 73.315021350001 40.359681410489 1.04689075 0 0 0
1199 2 71.6100042 43.312798579022 1.04689075 0 0 0
1200 2 81.84002185000101 31.500241310489 1.04689075 0 0 0
1201 2 80.135021750001 34.453358479022 1.04689075 0 0 0
1202 2 78.43002165000101 37.406505179022 1.04689075 0 0 0
1203 2 76.72500450000001 40.359681410489 1.04689075 0 0 0
1204 2 75.0200044 43.312798579022 1.04689075 0 0 0
1205 1 68.200004 45.281602420978 1.04689075 0 0 0
1206 1 71.609987149999 45.281602420978 1.04689075 0 0 0
1207 1 69.90500410000001 48.234719589511 1.04689075 0 0 0
1208 1 68.200004 51.187866289511 1.04689075 0 0 0
1209 1 75.0200044 45.281602420978 1.04689075 0 0 0
1210 1 73.314987249999 48.234719589511 1.04689075 0 0 0
1211 1 71.609987149999 51.187866289511 1.04689075 0 0 0
1212 1 69.90500410000001 54.141012989511 1.04689075 0 0 0
1213 1 68.200004 57.094189220977995 1.04689075 0 0 0
1214 2 69.905021150001 46.265945279022 1.04689075 0 0 0
1215 2 68.200004 49.219121510489 1.04689075 0 0 0
1216 2 73.315021350001 46.265945279022 1.04689075 0 0 0
1217 2 71.6100042 49.219121510489 1.04689075 0 0 0
1218 2 69.905021150001 52.172268210488994 1.04689075 0 0 0
1219 2 68.200004 55.125414910489 1.04689075 0 0 0
1220 1 83.544987849999 36.422132789511 1.04689075 0 0 0
1221 1 81.83998774999901 39.375309020978 1.04689075 0 0 0
1222 1 80.134987649999 42.328426189511 1.04689075 0 0 0
1223 2 100.5950059 58.078532079022 1.04689075 0 0 0
1224 2 83.54500490000001 34.453358479022 1.04689075 0 0 0
1225 2 81.84002185000101 37.406505179022 1.04689075 0 0 0
1226 2 80.135021750001 40.359681410489 1.04689075 0 0 0
1227 2 78.43002165000101 43.312798579022 1.04689075 0 0 0
1228 2 83.54500490000001 40.359681410489 1.04689075 0 0 0
1229 2 81.84002185000101 43.312798579022 1.04689075 0 0 0
1230 1 78.4300046 45.281602420978 1.04689075 0 0 0
1231 1 76.724987449999 48.234719589511 1.04689075 0 0 0
1232 1 75.0200044 51.187866289511 1.04689075 0 0 0
1233 1 73.314987249999 54.141012989511 1.04689075 0 0 0
1234 1 71.609987149999 57.094189220977995 1.04689075 0 0 0
1235 1 81.83998774999901 45.281602420978 1.04689075 0 0 0
1236 1 80.134987649999 48.234719589511 1.04689075 0 0 0
1237 1 78.4300046 51.187866289511 1.04689075 0 0 0
1238 1 76.724987449999 54.141012989511 1.04689075 0 0 0
1239 1 75.0200044 57.094189220977995 1.04689075 0 0 0
1240 1 83.544987849999 48.234719589511 1.04689075 0 0 0
1241 1 81.83998774999901 51.187866289511 1.04689075 0 0 0
1242 1 80.134987649999 54.141012989511 1.04689075 0 0 0
1243 1 78.4300046 57.094189220977995 1.04689075 0 0 0
1244 1 83.544987849999 54.141012989511 1.04689075 0 0 0
1245 1 81.83998774999901 57.094189220977995 1.04689075 0 0 0
1246 2 76.72500450000001 46.265945279022 1.04689075 0 0 0
1247 2 75.0200044 49.219121510489 1.04689075 0 0 0
1248 2 73.315021350001 52.172268210488994 1.04689075 0 0 0
1249 2 71.6100042 55.125414910489 1.04689075 0 0 0
1250 2 69.905021150001 58.078532079022 1.04689075 0 0 0
1251 2 80.135021750001 46.265945279022 1.04689075 0 0 0
1252 2 78.43002165000101 49.219121510489 1.04689075 0 0 0
1253 2 76.72500450000001 52.172268210488994 1.04689075 0 0 0
1254 2 75.0200044 55.125414910489 1.04689075 0 0 0
1255 2 73.315021350001 58.078532079022 1.04689075 0 0 0
1256 2 97.18502275000101 58.078532079022 1.04689075 0 0 0
1257 2 81.84002185000101 49.219121510489 1.04689075 0 0 0
1258 2 80.135021750001 52.172268210488994 1.04689075 0 0 0
1259 2 78.43002165000101 55.125414910489 1.04689075 0 0 0
1260 2 76.72500450000001 58.078532079022 1.04689075 0 0 0
1261 2 83.54500490000001 52.172268210488994 1.04689075 0 0 0
1262 2 81.84002185000101 55.125414910489 1.04689075 0 0 0
1263 2 80.135021750001 58.078532079022 1.04689075 0 0 0
1264 2 83.54500490000001 58.078532079022 1.04689075 0 0 0
1265 1 86.95500510000001 30.515868920978 1.04689075 0 0 0
1266 1 85.25000500000002 33.468986089511 1.04689075 0 0 0
1267 1 90.36498824999902 30.515868920978 1.04689075 0 0 0
1268 1 88.65998814999901 33.468986089511 1.04689075 0 0 0
1269 1 86.95500510000001 36.422132789511 1.04689075 0 0 0
1270 1 85.25000500000002 39.375309020978 1.04689075 0 0 0
1271 1 93.774988449999 30.515868920978 1.04689075 0 0 0
1272 1 92.07000540000001 33.468986089511 1.04689075 0 0 0
1273 1 90.36498824999902 36.422132789511 1.04689075 0 0 0
1274 1 88.65998814999901 39.375309020978 1.04689075 0 0 0
1275 2 98.890022850001 55.125414910489 1.04689075 0 0 0
1276 1 97.18498864999901 30.515868920978 1.04689075 0 0 0
1277 1 95.4800056 33.468986089511 1.04689075 0 0 0
1278 1 93.774988449999 36.422132789511 1.04689075 0 0 0
1279 1 92.07000540000001 39.375309020978 1.04689075 0 0 0
1280 1 90.36498824999902 42.328426189511 1.04689075 0 0 0
1281 1 100.594988849999 30.515868920978 1.04689075 0 0 0
1282 1 98.889988749999 33.468986089511 1.04689075 0 0 0
1283 1 97.18498864999901 36.422132789511 1.04689075 0 0 0
1284 1 95.4800056 39.375309020978 1.04689075 0 0 0
1285 1 93.774988449999 42.328426189511 1.04689075 0 0 0
1286 2 85.25000500000002 31.500241310489 1.04689075 0 0 0
1287 2 88.6600052 31.500241310489 1.04689075 0 0 0
1288 2 86.95502215000101 34.453358479022 1.04689075 0 0 0
1289 2 85.25000500000002 37.406505179022 1.04689075 0 0 0
1290 2 92.07000540000001 31.500241310489 1.04689075 0 0 0
1291 2 90.365022350001 34.453358479022 1.04689075 0 0 0
1292 2 88.6600052 37.406505179022 1.04689075 0 0 0
1293 2 86.95502215000101 40.359681410489 1.04689075 0 0 0
1294 2 100.5950059 52.172268210488994 1.04689075 0 0 0
1295 2 95.480022650001 31.500241310489 1.04689075 0 0 0
1296 2 93.7750055 34.453358479022 1.04689075 0 0 0
1297 2 92.07000540000001 37.406505179022 1.04689075 0 0 0
1298 2 90.365022350001 40.359681410489 1.04689075 0 0 0
1299 2 88.6600052 43.312798579022 1.04689075 0 0 0
1300 2 98.890022850001 31.500241310489 1.04689075 0 0 0
1301 2 97.18502275000101 34.453358479022 1.04689075 0 0 0
1302 2 95.480022650001 37.406505179022 1.04689075 0 0 0
1303 2 93.7750055 40.359681410489 1.04689075 0 0 0
1304 2 92.07000540000001 43.312798579022 1.04689075 0 0 0
1305 2 93.7750055 58.078532079022 1.04689075 0 0 0
1306 1 88.65998814999901 45.281602420978 1.04689075 0 0 0
1307 1 86.95500510000001 48.234719589511 1.04689075 0 0 0
1308 1 85.25000500000002 51.187866289511 1.04689075 0 0 0
1309 1 92.07000540000001 45.281602420978 1.04689075 0 0 0
1310 1 90.36498824999902 48.234719589511 1.04689075 0 0 0
1311 1 88.65998814999901 51.187866289511 1.04689075 0 0 0
1312 1 86.95500510000001 54.141012989511 1.04689075 0 0 0
1313 1 85.25000500000002 57.094189220977995 1.04689075 0 0 0
1314 2 95.480022650001 55.125414910489 1.04689075 0 0 0
1315 2 85.25000500000002 49.219121510489 1.04689075 0 0 0
1316 2 90.365022350001 46.265945279022 1.04689075 0 0 0
1317 2 88.6600052 49.219121510489 1.04689075 0 0 0
1318 2 86.95502215000101 52.172268210488994 1.04689075 0 0 0
1319 2 85.25000500000002 55.125414910489 1.04689075 0 0 0
1320 1 100.594988849999 36.422132789511 1.04689075 0 0 0
1321 1 98.889988749999 39.375309020978 1.04689075 0 0 0
1322 1 97.18498864999901 42.328426189511 1.04689075 0 0 0
1323 1 100.594988849999 42.328426189511 1.04689075 0 0 0
1324 2 100.5950059 34.453358479022 1.04689075 0 0 0
1325 2 98.890022850001 37.406505179022 1.04689075 0 0 0
1326 2 97.18502275000101 40.359681410489 1.04689075 0 0 0
1327 2 95.480022650001 43.312798579022 1.04689075 0 0 0
1328 2 100.5950059 40.359681410489 1.04689075 0 0 0
1329 2 98.890022850001 43.312798579022 1.04689075 0 0 0
1330 1 95.4800056 45.281602420978 1.04689075 0 0 0
1331 1 93.774988449999 48.234719589511 1.04689075 0 0 0
1332 1 92.07000540000001 51.187866289511 1.04689075 0 0 0
1333 1 90.36498824999902 54.141012989511 1.04689075 0 0 0
1334 1 88.65998814999901 57.094189220977995 1.04689075 0 0 0
1335 1 98.889988749999 45.281602420978 1.04689075 0 0 0
1336 1 97.18498864999901 48.234719589511 1.04689075 0 0 0
1337 1 95.4800056 51.187866289511 1.04689075 0 0 0
1338 1 93.774988449999 54.141012989511 1.04689075 0 0 0
1339 1 92.07000540000001 57.094189220977995 1.04689075 0 0 0
1340 1 100.594988849999 48.234719589511 1.04689075 0 0 0
1341 1 98.889988749999 51.187866289511 1.04689075 0 0 0
1342 1 97.18498864999901 54.141012989511 1.04689075 0 0 0
1343 1 95.4800056 57.094189220977995 1.04689075 0 0 0
1344 1 100.594988849999 54.141012989511 1.04689075 0 0 0
1345 1 98.889988749999 57.094189220977995 1.04689075 0 0 0
1346 2 93.7750055 46.265945279022 1.04689075 0 0 0
1347 2 92.07000540000001 49.219121510489 1.04689075 0 0 0
1348 2 90.365022350001 52.172268210488994 1.04689075 0 0 0
1349 2 88.6600052 55.125414910489 1.04689075 0 0 0
1350 2 86.95502215000101 58.078532079022 1.04689075 0 0 0
1351 2 97.18502275000101 46.265945279022 1.04689075 0 0 0
1352 2 95.480022650001 49.219121510489 1.04689075 0 0 0
1353 2 93.7750055 52.172268210488994 1.04689075 0 0 0
1354 2 92.07000540000001 55.125414910489 1.04689075 0 0 0
1355 2 90.365022350001 58.078532079022 1.04689075 0 0 0
1356 2 100.5950059 46.265945279022 1.04689075 0 0 0
1357 2 98.890022850001 49.219121510489 1.04689075 0 0 0
1358 2 97.18502275000101 52.172268210488994 1.04689075 0 0 0
1941 1 69.90500410000001 60.047335920978 1.04689075 0 0 0
1942 1 68.200004 63.000453089511 1.04689075 0 0 0
1943 1 73.314987249999 60.047335920978 1.04689075 0 0 0
1944 1 71.609987149999 63.000453089511 1.04689075 0 0 0
1945 1 69.90500410000001 65.953599789511 1.04689075 0 0 0
1946 1 68.200004 68.906776020978 1.04689075 0 0 0
1947 1 76.724987449999 60.047335920978 1.04689075 0 0 0
1948 1 75.0200044 63.000453089511 1.04689075 0 0 0
1949 1 73.314987249999 65.953599789511 1.04689075 0 0 0
1950 1 71.609987149999 68.906776020978 1.04689075 0 0 0
1951 1 69.90500410000001 71.859893189511 1.04689075 0 0 0
1952 1 80.134987649999 60.047335920978 1.04689075 0 0 0
1953 1 78.4300046 63.000453089511 1.04689075 0 0 0
1954 1 76.724987449999 65.953599789511 1.04689075 0 0 0
1955 1 75.0200044 68.906776020978 1.04689075 0 0 0
1956 1 73.314987249999 71.859893189511 1.04689075 0 0 0
1957 1 83.544987849999 60.047335920978 1.04689075 0 0 0
1958 1 81.83998774999901 63.000453089511 1.04689075 0 0 0
1959 1 80.134987649999 65.953599789511 1.04689075 0 0 0
1960 1 78.4300046 68.906776020978 1.04689075 0 0 0
1961 1 76.724987449999 71.859893189511 1.04689075 0 0 0
1962 2 68.200004 61.031708310489 1.04689075 0 0 0
1963 2 71.6100042 61.031708310489 1.04689075 0 0 0
1964 2 69.905021150001 63.984825479022 1.04689075 0 0 0
1965 2 68.200004 66.937972179022 1.04689075 0 0 0
1966 2 75.0200044 61.031708310489 1.04689075 0 0 0
1967 2 73.315021350001 63.984825479022 1.04689075 0 0 0
1968 2 71.6100042 66.937972179022 1.04689075 0 0 0
1969 2 69.905021150001 69.891148410489 1.04689075 0 0 0
1970 2 68.200004 72.844265579022 1.04689075 0 0 0
1971 2 78.43002165000101 61.031708310489 1.04689075 0 0 0
1972 2 76.72500450000001 63.984825479022 1.04689075 0 0 0
1973 2 75.0200044 66.937972179022 1.04689075 0 0 0
1974 2 73.315021350001 69.891148410489 1.04689075 0 0 0
1975 2 71.6100042 72.844265579022 1.04689075 0 0 0
1976 2 81.84002185000101 61.031708310489 1.04689075 0 0 0
1977 2 80.135021750001 63.984825479022 1.04689075 0 0 0
1978 2 78.43002165000101 66.937972179022 1.04689075 0 0 0
1979 2 76.72500450000001 69.891148410489 1.04689075 0 0 0
1980 2 75.0200044 72.844265579022 1.04689075 0 0 0
1981 1 68.200004 74.813069420978 1.04689075 0 0 0
1982 1 71.609987149999 74.813069420978 1.04689075 0 0 0
1983 1 69.90500410000001 77.766186589511 1.04689075 0 0 0
1984 1 68.200004 80.719333289511 1.04689075 0 0 0
1985 1 75.0200044 74.813069420978 1.04689075 0 0 0
1986 1 73.314987249999 77.766186589511 1.04689075 0 0 0
1987 1 71.609987149999 80.719333289511 1.04689075 0 0 0
1988 1 69.90500410000001 83.672479989511 1.04689075 0 0 0
1989 1 68.200004 86.625656220978 1.04689075 0 0 0
1990 2 69.905021150001 75.797412279022 1.04689075 0 0 0
1991 2 68.200004 78.750588510489 1.04689075 0 0 0
1992 2 73.315021350001 75.797412279022 1.04689075 0 0 0
1993 2 71.6100042 78.750588510489 1.04689075 0 0 0
1994 2 69.905021150001 81.703735210489 1.04689075 0 0 0
1995 2 68.200004 84.656881910489 1.04689075 0 0 0
1996 1 83.544987849999 65.953599789511 1.04689075 0 0 0
1997 1 81.83998774999901 68.906776020978 1.04689075 0 0 0
1998 1 80.134987649999 71.859893189511 1.04689075 0 0 0
1999 2 100.5950059 87.609999079022 1.04689075 0 0 0
2000 2 83.54500490000001 63.984825479022 1.04689075 0 0 0
2001 2 81.84002185000101 66.937972179022 1.04689075 0 0 0
2002 2 80.135021750001 69.891148410489 1.04689075 0 0 0
2003 2 78.43002165000101 72.844265579022 1.04689075 0 0 0
2004 2 83.54500490000001 69.891148410489 1.04689075 0 0 0
2005 2 81.84002185000101 72.844265579022 1.04689075 0 0 0
2006 1 78.4300046 74.813069420978 1.04689075 0 0 0
2007 1 76.724987449999 77.766186589511 1.04689075 0 0 0
2008 1 75.0200044 80.719333289511 1.04689075 0 0 0
2009 1 73.314987249999 83.672479989511 1.04689075 0 0 0
2010 1 71.609987149999 86.625656220978 1.04689075 0 0 0
2011 1 81.83998774999901 74.813069420978 1.04689075 0 0 0
2012 1 80.134987649999 77.766186589511 1.04689075 0 0 0
2013 1 78.4300046 80.719333289511 1.04689075 0 0 0
2014 1 76.724987449999 83.672479989511 1.04689075 0 0 0
2015 1 75.0200044 86.625656220978 1.04689075 0 0 0
2016 1 83.544987849999 77.766186589511 1.04689075 0 0 0
2017 1 81.83998774999901 80.719333289511 1.04689075 0 0 0
2018 1 80.134987649999 83.672479989511 1.04689075 0 0 0
2019 1 78.4300046 86.625656220978 1.04689075 0 0 0
2020 1 83.544987849999 83.672479989511 1.04689075 0 0 0
2021 1 81.83998774999901 86.625656220978 1.04689075 0 0 0
2022 2 76.72500450000001 75.797412279022 1.04689075 0 0 0
2023 2 75.0200044 78.750588510489 1.04689075 0 0 0
2024 2 73.315021350001 81.703735210489 1.04689075 0 0 0
2025 2 71.6100042 84.656881910489 1.04689075 0 0 0
2026 2 69.905021150001 87.609999079022 1.04689075 0 0 0
2027 2 80.135021750001 75.797412279022 1.04689075 0 0 0
2028 2 78.43002165000101 78.750588510489 1.04689075 0 0 0
2029 2 76.72500450000001 81.703735210489 1.04689075 0 0 0
2030 2 75.0200044 84.656881910489 1.04689075 0 0 0
2031 2 73.315021350001 87.609999079022 1.04689075 0 0 0
2032 2 97.18502275000101 87.609999079022 1.04689075 0 0 0
2033 2 81.84002185000101 78.750588510489 1.04689075 0 0 0
2034 2 80.135021750001 81.703735210489 1.04689075 0 0 0
2035 2 78.43002165000101 84.656881910489 1.04689075 0 0 0
2036 2 76.72500450000001 87.609999079022 1.04689075 0 0 0
2037 2 83.54500490000001 81.703735210489 1.04689075 0 0 0
2038 2 81.84002185000101 84.656881910489 1.04689075 0 0 0
2039 2 80.135021750001 87.609999079022 1.04689075 0 0 0
2040 2 83.54500490000001 87.609999079022 1.04689075 0 0 0
2041 1 86.95500510000001 60.047335920978 1.04689075 0 0 0
2042 1 85.25000500000002 63.000453089511 1.04689075 0 0 0
2043 1 90.36498824999902 60.047335920978 1.04689075 0 0 0
2044 1 88.65998814999901 63.000453089511 1.04689075 0 0 0
2045 1 86.95500510000001 65.953599789511 1.04689075 0 0 0
2046 1 85.25000500000002 68.906776020978 1.04689075 0 0 0
2047 1 93.774988449999 60.047335920978 1.04689075 0 0 0
2048 1 92.07000540000001 63.000453089511 1.04689075 0 0 0
2049 1 90.36498824999902 65.953599789511 1.04689075 0 0 0
2050 1 88.65998814999901 68.906776020978 1.04689075 0 0 0
2051 2 98.890022850001 84.656881910489 1.04689075 0 0 0
2052 1 97.18498864999901 60.047335920978 1.04689075 0 0 0
2053 1 95.4800056 63.000453089511 1.04689075 0 0 0
2054 1 93.774988449999 65.953599789511 1.04689075 0 0 0
2055 1 92.07000540000001 68.906776020978 1.04689075 0 0 0
2056 1 90.36498824999902 71.859893189511 1.04689075 0 0 0
2057 1 100.594988849999 60.047335920978 1.04689075 0 0 0
2058 1 98.889988749999 63.000453089511 1.04689075 0 0 0
2059 1 97.18498864999901 65.953599789511 1.04689075 0 0 0
2060 1 95.4800056 68.906776020978 1.04689075 0 0 0
2061 1 93.774988449999 71.859893189511 1.04689075 0 0 0
2062 2 85.25000500000002 61.031708310489 1.04689075 0 0 0
2063 2 88.6600052 61.031708310489 1.04689075 0 0 0
2064 2 86.95502215000101 63.984825479022 1.04689075 0 0 0
2065 2 85.25000500000002 66.937972179022 1.04689075 0 0 0
2066 2 92.07000540000001 61.031708310489 1.04689075 0 0 0
2067 2 90.365022350001 63.984825479022 1.04689075 0 0 0
2068 2 88.6600052 66.937972179022 1.04689075 0 0 0
2069 2 86.95502215000101 69.891148410489 1.04689075 0 0 0
2070 2 100.5950059 81.703735210489 1.04689075 0 0 0
2071 2 95.480022650001 61.031708310489 1.04689075 0 0 0
2072 2 93.7750055 63.984825479022 1.04689075 0 0 0
2073 2 92.07000540000001 66.937972179022 1.04689075 0 0 0
2074 2 90.365022350001 69.891148410489 1.04689075 0 0 0
2075 2 88.6600052 72.844265579022 1.04689075 0 0 0
2076 2 98.890022850001 61.031708310489 1.04689075 0 0 0
2077 2 97.18502275000101 63.984825479022 1.04689075 0 0 0
2078 2 95.480022650001 66.937972179022 1.04689075 0 0 0
2079 2 93.7750055 69.891148410489 1.04689075 0 0 0
2080 2 92.07000540000001 72.844265579022 1.04689075 0 0 0
2081 2 93.7750055 87.609999079022 1.04689075 0 0 0
2082 1 88.65998814999901 74.813069420978 1.04689075 0 0 0
2083 1 86.95500510000001 77.766186589511 1.04689075 0 0 0
2084 1 85.25000500000002 80.719333289511 1.04689075 0 0 0
2085 1 92.07000540000001 74.813069420978 1.04689075 0 0 0
2086 1 90.36498824999902 77.766186589511 1.04689075 0 0 0
2087 1 88.65998814999901 80.719333289511 1.04689075 0 0 0
2088 1 86.95500510000001 83.672479989511 1.04689075 0 0 0
2089 1 85.25000500000002 86.625656220978 1.04689075 0 0 0
2090 2 95.480022650001 84.656881910489 1.04689075 0 0 0
2091 2 85.25000500000002 78.750588510489 1.04689075 0 0 0
2092 2 90.365022350001 75.797412279022 1.04689075 0 0 0
2093 2 88.6600052 78.750588510489 1.04689075 0 0 0
2094 2 86.95502215000101 81.703735210489 1.04689075 0 0 0
2095 2 85.25000500000002 84.656881910489 1.04689075 0 0 0
2096 1 100.594988849999 65.953599789511 1.04689075 0 0 0
2097 1 98.889988749999 68.906776020978 1.04689075 0 0 0
2098 1 97.18498864999901 71.859893189511 1.04689075 0 0 0
2099 1 100.594988849999 71.859893189511 1.04689075 0 0 0
2100 2 100.5950059 63.984825479022 1.04689075 0 0 0
2101 2 98.890022850001 66.937972179022 1.04689075 0 0 0
2102 2 97.18502275000101 69.891148410489 1.04689075 0 0 0
2103 2 95.480022650001 72.844265579022 1.04689075 0 0 0
2104 2 100.5950059 69.891148410489 1.04689075 0 0 0
2105 2 98.890022850001 72.844265579022 1.04689075 0 0 0
2106 1 95.4800056 74.813069420978 1.04689075 0 0 0
2107 1 93.774988449999 77.766186589511 1.04689075 0 0 0
2108 1 92.07000540000001 80.719333289511 1.04689075 0 0 0
2109 1 90.36498824999902 83.672479989511 1.04689075 0 0 0
2110 1 88.65998814999901 86.625656220978 1.04689075 0 0 0
2111 1 98.889988749999 74.813069420978 1.04689075 0 0 0
2112 1 97.18498864999901 77.766186589511 1.04689075 0 0 0
2113 1 95.4800056 80.719333289511 1.04689075 0 0 0
2114 1 93.774988449999 83.672479989511 1.04689075 0 0 0
2115 1 92.07000540000001 86.625656220978 1.04689075 0 0 0
2116 1 100.594988849999 77.766186589511 1.04689075 0 0 0
2117 1 98.889988749999 80.719333289511 1.04689075 0 0 0
2118 1 97.18498864999901 83.672479989511 1.04689075 0 0 0
2119 1 95.4800056 86.625656220978 1.04689075 0 0 0
2120 1 100.594988849999 83.672479989511 1.04689075 0 0 0
2121 1 98.889988749999 86.625656220978 1.04689075 0 0 0
2122 2 93.7750055 75.797412279022 1.04689075 0 0 0
2123 2 92.07000540000001 78.750588510489 1.04689075 0 0 0
2124 2 90.365022350001 81.703735210489 1.04689075 0 0 0
2125 2 88.6600052 84.656881910489 1.04689075 0 0 0
2126 2 86.95502215000101 87.609999079022 1.04689075 0 0 0
2127 2 97.18502275000101 75.797412279022 1.04689075 0 0 0
2128 2 95.480022650001 78.750588510489 1.04689075 0 0 0
2129 2 93.7750055 81.703735210489 1.04689075 0 0 0
2130 2 92.07000540000001 84.656881910489 1.04689075 0 0 0
2131 2 90.365022350001 87.609999079022 1.04689075 0 0 0
2132 2 100.5950059 75.797412279022 1.04689075 0 0 0
2133 2 98.890022850001 78.750588510489 1.04689075 0 0 0
2134 2 97.18502275000101 81.703735210489 1.04689075 0 0 0
2717 1 69.90500410000001 89.578802920978 1.04689075 0 0 0
2718 1 68.200004 92.531920089511 1.04689075 0 0 0
2719 1 73.314987249999 89.578802920978 1.04689075 0 0 0
2720 1 71.609987149999 92.531920089511 1.04689075 0 0 0
2721 1 69.90500410000001 95.48506678951101 1.04689075 0 0 0
2722 1 68.200004 98.438243020978 1.04689075 0 0 0
2723 1 76.724987449999 89.578802920978 1.04689075 0 0 0
2724 1 75.0200044 92.531920089511 1.04689075 0 0 0
2725 1 73.314987249999 95.48506678951101 1.04689075 0 0 0
2726 1 71.609987149999 98.438243020978 1.04689075 0 0 0
2727 1 69.90500410000001 101.391360189511 1.04689075 0 0 0
2728 1 80.134987649999 89.578802920978 1.04689075 0 0 0
2729 1 78.4300046 92.531920089511 1.04689075 0 0 0
2730 1 76.724987449999 95.48506678951101 1.04689075 0 0 0
2731 1 75.0200044 98.438243020978 1.04689075 0 0 0
2732 1 73.314987249999 101.391360189511 1.04689075 0 0 0
2733 1 83.544987849999 89.578802920978 1.04689075 0 0 0
2734 1 81.83998774999901 92.531920089511 1.04689075 0 0 0
2735 1 80.134987649999 95.48506678951101 1.04689075 0 0 0
2736 1 78.4300046 98.438243020978 1.04689075 0 0 0
2737 1 76.724987449999 101.391360189511 1.04689075 0 0 0
2738 2 68.200004 90.563175310489 1.04689075 0 0 0
2739 2 71.6100042 90.563175310489 1.04689075 0 0 0
2740 2 69.905021150001 93.516292479022 1.04689075 0 0 0
2741 2 68.200004 96.469439179022 1.04689075 0 0 0
2742 2 75.0200044 90.563175310489 1.04689075 0 0 0
2743 2 73.315021350001 93.516292479022 1.04689075 0 0 0
2744 2 71.6100042 96.469439179022 1.04689075 0 0 0
2745 2 69.905021150001 99.422615410489 1.04689075 0 0 0
2746 2 68.200004 102.375732579022 1.04689075 0 0 0
2747 2 78.43002165000101 90.563175310489 1.04689075 0 0 0
2748 2 76.72500450000001 93.516292479022 1.04689075 0 0 0
2749 2 75.0200044 96.469439179022 1.04689075 0 0 0
2750 2 73.315021350001 99.422615410489 1.04689075 0 0 0
2751 2 71.6100042 102.375732579022 1.04689075 0 0 0
2752 2 81.84002185000101 90.563175310489 1.04689075 0 0 0
2753 2 80.135021750001 93.516292479022 1.04689075 0 0 0
2754 2 78.43002165000101 96.469439179022 1.04689075 0 0 0
2755 2 76.72500450000001 99.422615410489 1.04689075 0 0 0
2756 2 75.0200044 102.375732579022 1.04689075 0 0 0
2757 1 68.200004 104.344536420978 1.04689075 0 0 0
2758 1 71.609987149999 104.344536420978 1.04689075 0 0 0
2759 1 69.90500410000001 107.297653589511 1.04689075 0 0 0
2760 1 68.200004 110.250800289511 1.04689075 0 0 0
2761 1 75.0200044 104.344536420978 1.04689075 0 0 0
2762 1 73.314987249999 107.297653589511 1.04689075 0 0 0
2763 1 71.609987149999 110.250800289511 1.04689075 0 0 0
2764 1 69.90500410000001 113.203946989511 1.04689075 0 0 0
2765 1 68.200004 116.15712322097801 1.04689075 0 0 0
2766 2 69.905021150001 105.328879279022 1.04689075 0 0 0
2767 2 68.200004 108.282055510489 1.04689075 0 0 0
2768 2 73.315021350001 105.328879279022 1.04689075 0 0 0
2769 2 71.6100042 108.282055510489 1.04689075 0 0 0
2770 2 69.905021150001 111.235202210489 1.04689075 0 0 0
2771 2 68.200004 114.188348910489 1.04689075 0 0 0
2772 1 83.544987849999 95.48506678951101 1.04689075 0 0 0
2773 1 81.83998774999901 98.438243020978 1.04689075 0 0 0
2774 1 80.134987649999 101.391360189511 1.04689075 0 0 0
2775 2 100.5950059 117.14146607902201 1.04689075 0 0 0
2776 2 83.54500490000001 93.516292479022 1.04689075 0 0 0
2777 2 81.84002185000101 96.469439179022 1.04689075 0 0 0
2778 2 80.135021750001 99.422615410489 1.04689075 0 0 0
2779 2 78.43002165000101 102.375732579022 1.04689075 0 0 0
2780 2 83.54500490000001 99.422615410489 1.04689075 0 0 0
2781 2 81.84002185000101 102.375732579022 1.04689075 0 0 0
2782 1 78.4300046 104.344536420978 1.04689075 0 0 0
2783 1 76.724987449999 107.297653589511 1.04689075 0 0 0
2784 1 75.0200044 110.250800289511 1.04689075 0 0 0
2785 1 73.314987249999 113.203946989511 1.04689075 0 0 0
2786 1 71.609987149999 116.15712322097801 1.04689075 0 0 0
2787 1 81.83998774999901 104.344536420978 1.04689075 0 0 0
2788 1 80.134987649999 107.297653589511 1.04689075 0 0 0
2789 1 78.4300046 110.250800289511 1.04689075 0 0 0
2790 1 76.724987449999 113.203946989511 1.04689075 0 0 0
2791 1 75.0200044 116.15712322097801 1.04689075 0 0 0
2792 1 83.544987849999 107.297653589511 1.04689075 0 0 0
2793 1 81.83998774999901 110.250800289511 1.04689075 0 0 0
2794 1 80.134987649999 113.203946989511 1.04689075 0 0 0
2795 1 78.4300046 116.15712322097801 1.04689075 0 0 0
2796 1 83.544987849999 113.203946989511 1.04689075 0 0 0
2797 1 81.83998774999901 116.15712322097801 1.04689075 0 0 0
2798 2 76.72500450000001 105.328879279022 1.04689075 0 0 0
2799 2 75.0200044 108.282055510489 1.04689075 0 0 0
2800 2 73.315021350001 111.235202210489 1.04689075 0 0 0
2801 2 71.6100042 114.188348910489 1.04689075 0 0 0
2802 2 69.905021150001 117.14146607902201 1.04689075 0 0 0
2803 2 80.135021750001 105.328879279022 1.04689075 0 0 0
2804 2 78.43002165000101 108.282055510489 1.04689075 0 0 0
2805 2 76.72500450000001 111.235202210489 1.04689075 0 0 0
2806 2 75.0200044 114.188348910489 1.04689075 0 0 0
2807 2 73.315021350001 117.14146607902201 1.04689075 0 0 0
2808 2 97.18502275000101 117.14146607902201 1.04689075 0 0 0
2809 2 81.84002185000101 108.282055510489 1.04689075 0 0 0
2810 2 80.135021750001 111.235202210489 1.04689075 0 0 0
2811 2 78.43002165000101 114.188348910489 1.04689075 0 0 0
2812 2 76.72500450000001 117.14146607902201 1.04689075 0 0 0
2813 2 83.54500490000001 111.235202210489 1.04689075 0 0 0
2814 2 81.84002185000101 114.188348910489 1.04689075 0 0 0
2815 2 80.135021750001 117.14146607902201 1.04689075 0 0 0
2816 2 83.54500490000001 117.14146607902201 1.04689075 0 0 0
2817 1 86.95500510000001 89.578802920978 1.04689075 0 0 0
2818 1 85.25000500000002 92.531920089511 1.04689075 0 0 0
2819 1 90.36498824999902 89.578802920978 1.04689075 0 0 0
2820 1 88.65998814999901 92.531920089511 1.04689075 0 0 0
2821 1 86.95500510000001 95.48506678951101 1.04689075 0 0 0
2822 1 85.25000500000002 98.438243020978 1.04689075 0 0 0
2823 1 93.774988449999 89.578802920978 1.04689075 0 0 0
2824 1 92.07000540000001 92.531920089511 1.04689075 0 0 0
2825 1 90.36498824999902 95.48506678951101 1.04689075 0 0 0
2826 1 88.65998814999901 98.438243020978 1.04689075 0 0 0
2827 2 98.890022850001 114.188348910489 1.04689075 0 0 0
2828 1 97.18498864999901 89.578802920978 1.04689075 0 0 0
2829 1 95.4800056 92.531920089511 1.04689075 0 0 0
2830 1 93.774988449999 95.48506678951101 1.04689075 0 0 0
2831 1 92.07000540000001 98.438243020978 1.04689075 0 0 0
2832 1 90.36498824999902 101.391360189511 1.04689075 0 0 0
2833 1 100.594988849999 89.578802920978 1.04689075 0 0 0
2834 1 98.889988749999 92.531920089511 1.04689075 0 0 0
2835 1 97.18498864999901 95.48506678951101 1.04689075 0 0 0
2836 1 95.4800056 98.438243020978 1.04689075 0 0 0
2837 1 93.774988449999 101.391360189511 1.04689075 0 0 0
2838 2 85.25000500000002 90.563175310489 1.04689075 0 0 0
2839 2 88.6600052 90.563175310489 1.04689075 0 0 0
2840 2 86.95502215000101 93.516292479022 1.04689075 0 0 0
2841 2 85.25000500000002 96.469439179022 1.04689075 0 0 0
2842 2 92.07000540000001 90.563175310489 1.04689075 0 0 0
2843 2 90.365022350001 93.516292479022 1.04689075 0 0 0
2844 2 88.6600052 96.469439179022 1.04689075 0 0 0
2845 2 86.95502215000101 99.422615410489 1.04689075 0 0 0
2846 2 100.5950059 111.235202210489 1.04689075 0 0 0
2847 2 95.480022650001 90.563175310489 1.04689075 0 0 0
2848 2 93.7750055 93.516292479022 1.04689075 0 0 0
2849 2 92.07000540000001 96.469439179022 1.04689075 0 0 0
2850 2 90.365022350001 99.422615410489 1.04689075 0 0 0
2851 2 88.6600052 102.375732579022 1.04689075 0 0 0
2852 2 98.890022850001 90.563175310489 1.04689075 0 0 0
2853 2 97.18502275000101 93.516292479022 1.04689075 0 0 0
2854 2 95.480022650001 96.469439179022 1.04689075 0 0 0
2855 2 93.7750055 99.422615410489 1.04689075 0 0 0
2856 2 92.07000540000001 102.375732579022 1.04689075 0 0 0
2857 2 93.7750055 117.14146607902201 1.04689075 0 0 0
2858 1 88.65998814999901 104.344536420978 1.04689075 0 0 0
2859 1 86.95500510000001 107.297653589511 1.04689075 0 0 0
2860 1 85.25000500000002 110.250800289511 1.04689075 0 0 0
2861 1 92.07000540000001 104.344536420978 1.04689075 0 0 0
2862 1 90.36498824999902 107.297653589511 1.04689075 0 0 0
2863 1 88.65998814999901 110.250800289511 1.04689075 0 0 0
2864 1 86.95500510000001 113.203946989511 1.04689075 0 0 0
2865 1 85.25000500000002 116.15712322097801 1.04689075 0 0 0
2866 2 95.480022650001 114.188348910489 1.04689075 0 0 0
2867 2 85.25000500000002 108.282055510489 1.04689075 0 0 0
2868 2 90.365022350001 105.328879279022 1.04689075 0 0 0
2869 2 88.6600052 108.282055510489 1.04689075 0 0 0
2870 2 86.95502215000101 111.235202210489 1.04689075 0 0 0
2871 2 85.25000500000002 114.188348910489 1.04689075 0 0 0
2872 1 100.594988849999 95.48506678951101 1.04689075 0 0 0
2873 1 98.889988749999 98.438243020978 1.04689075 0 0 0
2874 1 97.18498864999901 101.391360189511 1.04689075 0 0 0
2875 1 100.594988849999 101.391360189511 1.04689075 0 0 0
2876 2 100.5950059 93.516292479022 1.04689075 0 0 0
2877 2 98.890022850001 96.469439179022 1.04689075 0 0 0
2878 2 97.18502275000101 99.422615410489 1.04689075 0 0 0
2879 2 95.480022650001 102.375732579022 1.04689075 0 0 0
2880 2 100.5950059 99.422615410489 1.04689075 0 0 0
2881 2 98.890022850001 102.375732579022 1.04689075 0 0 0
2882 1 95.4800056 104.344536420978 1.04689075 0 0 0
2883 1 93.774988449999 107.297653589511 1.04689075 0 0 0
2884 1 92.07000540000001 110.250800289511 1.04689075 0 0 0
2885 1 90.36498824999902 113.203946989511 1.04689075 0 0 0
2886 1 88.65998814999901 116.15712322097801 1.04689075 0 0 0
2887 1 98.889988749999 104.344536420978 1.04689075 0 0 0
2888 1 97.18498864999901 107.297653589511 1.04689075 0 0 0
2889 1 95.4800056 110.250800289511 1.04689075 0 0 0
2890 1 93.774988449999 113.203946989511 1.04689075 0 0 0
2891 1 92.07000540000001 116.15712322097801 1.04689075 0 0 0
2892 1 100.594988849999 107.297653589511 1.04689075 0 0 0
2893 1 98.889988749999 110.250800289511 1.04689075 0 0 0
2894 1 97.18498864999901 113.203946989511 1.04689075 0 0 0
2895 1 95.4800056 116.15712322097801 1.04689075 0 0 0
2896 1 100.594988849999 113.203946989511 1.04689075 0 0 0
2897 1 98.889988749999 116.15712322097801 1.04689075 0 0 0
2898 2 93.7750055 105.328879279022 1.04689075 0 0 0
2899 2 92.07000540000001 108.282055510489 1.04689075 0 0 0
2900 2 90.365022350001 111.235202210489 1.04689075 0 0 0
2901 2 88.6600052 114.188348910489 1.04689075 0 0 0
2902 2 86.95502215000101 117.14146607902201 1.04689075 0 0 0
2903 2 97.18502275000101 105.328879279022 1.04689075 0 0 0
2904 2 95.480022650001 108.282055510489 1.04689075 0 0 0
2905 2 93.7750055 111.235202210489 1.04689075 0 0 0
2906 2 92.07000540000001 114.188348910489 1.04689075 0 0 0
2907 2 90.365022350001 117.14146607902201 1.04689075 0 0 0
2908 2 100.5950059 105.328879279022 1.04689075 0 0 0
2909 2 98.890022850001 108.282055510489 1.04689075 0 0 0
2910 2 97.18502275000101 111.235202210489 1.04689075 0 0 0
3493 1 69.90500410000001 119.110269920978 1.04689075 0 0 0
3494 1 68.200004 122.063387089511 1.04689075 0 0 0
3495 1 73.314987249999 119.110269920978 1.04689075 0 0 0
3496 1 71.609987149999 122.063387089511 1.04689075 0 0 0
3497 1 69.90500410000001 125.016533789511 1.04689075 0 0 0
3498 1 68.200004 127.969710020978 1.04689075 0 0 0
3499 1 76.724987449999 119.110269920978 1.04689075 0 0 0
3500 1 75.0200044 122.063387089511 1.04689075 0 0 0
3501 1 73.314987249999 125.016533789511 1.04689075 0 0 0
3502 1 71.609987149999 127.969710020978 1.04689075 0 0 0
3503 1 69.90500410000001 130.922827189511 1.04689075 0 0 0
3504 1 80.134987649999 119.110269920978 1.04689075 0 0 0
3505 1 78.4300046 122.063387089511 1.04689075 0 0 0
3506 1 76.724987449999 125.016533789511 1.04689075 0 0 0
3507 1 75.0200044 127.969710020978 1.04689075 0 0 0
3508 1 73.314987249999 130.922827189511 1.04689075 0 0 0
3509 1 83.544987849999 119.110269920978 1.04689075 0 0 0
3510 1 81.83998774999901 122.063387089511 1.04689075 0 0 0
3511 1 80.134987649999 125.016533789511 1.04689075 0 0 0
3512 1 78.4300046 127.969710020978 1.04689075 0 0 0
3513 1 76.724987449999 130.922827189511 1.04689075 0 0 0
3514 2 68.200004 120.094642310489 1.04689075 0 0 0
3515 2 71.6100042 120.094642310489 1.04689075 0 0 0
3516 2 69.905021150001 123.04775947902199 1.04689075 0 0 0
3517 2 68.200004 126.000906179022 1.04689075 0 0 0
3518 2 75.0200044 120.094642310489 1.04689075 0 0 0
3519 2 73.315021350001 123.04775947902199 1.04689075 0 0 0
3520 2 71.6100042 126.000906179022 1.04689075 0 0 0
3521 2 69.905021150001 128.954082410489 1.04689075 0 0 0
3522 2 68.200004 131.907199579022 1.04689075 0 0 0
3523 2 78.43002165000101 120.094642310489 1.04689075 0 0 0
3524 2 76.72500450000001 123.04775947902199 1.04689075 0 0 0
3525 2 75.0200044 126.000906179022 1.04689075 0 0 0
3526 2 73.315021350001 128.954082410489 1.04689075 0 0 0
3527 2 71.6100042 131.907199579022 1.04689075 0 0 0
3528 2 81.84002185000101 120.094642310489 1.04689075 0 0 0
3529 2 80.135021750001 123.04775947902199 1.04689075 0 0 0
3530 2 78.43002165000101 126.000906179022 1.04689075 0 0 0
3531 2 76.72500450000001 128.954082410489 1.04689075 0 0 0
3532 2 75.0200044 131.907199579022 1.04689075 0 0 0
3533 1 68.200004 133.876003420978 1.04689075 0 0 0
3534 1 71.609987149999 133.876003420978 1.04689075 0 0 0
3535 1 69.90500410000001 136.829120589511 1.04689075 0 0 0
3536 1 68.200004 139.782267289511 1.04689075 0 0 0
3537 1 75.0200044 133.876003420978 1.04689075 0 0 0
3538 1 73.314987249999 136.829120589511 1.04689075 0 0 0
3539 1 71.609987149999 139.782267289511 1.04689075 0 0 0
3540 1 69.90500410000001 142.735413989511 1.04689075 0 0 0
3541 1 68.200004 145.688590220978 1.04689075 0 0 0
3542 2 69.905021150001 134.860346279022 1.04689075 0 0 0
3543 2 68.200004 137.813522510489 1.04689075 0 0 0
3544 2 73.315021350001 134.860346279022 1.04689075 0 0 0
3545 2 71.6100042 137.813522510489 1.04689075 0 0 0
3546 2 69.905021150001 140.766669210489 1.04689075 0 0 0
3547 2 68.200004 143.719815910489 1.04689075 0 0 0
3548 1 83.544987849999 125.016533789511 1.04689075 0 0 0
3549 1 81.83998774999901 127.969710020978 1.04689075 0 0 0
3550 1 80.134987649999 130.922827189511 1.04689075 0 0 0
3551 2 100.5950059 146.672933079022 1.04689075 0 0 0
3552 2 83.54500490000001 123.04775947902199 1.04689075 0 0 0
3553 2 81.84002185000101 126.000906179022 1.04689075 0 0 0
3554 2 80.135021750001 128.954082410489 1.04689075 0 0 0
3555 2 78.43002165000101 131.907199579022 1.04689075 0 0 0
3556 2 83.54500490000001 128.954082410489 1.04689075 0 0 0
3557 2 81.84002185000101 131.907199579022 1.04689075 0 0 0
3558 1 78.4300046 133.876003420978 1.04689075 0 0 0
3559 1 76.724987449999 136.829120589511 1.04689075 0 0 0
3560 1 75.0200044 139.782267289511 1.04689075 0 0 0
3561 1 73.314987249999 142.735413989511 1.04689075 0 0 0
3562 1 71.609987149999 145.688590220978 1.04689075 0 0 0
3563 1 81.83998774999901 133.876003420978 1.04689075 0 0 0
3564 1 80.134987649999 136.829120589511 1.04689075 0 0 0
3565 1 78.4300046 139.782267289511 1.04689075 0 0 0
3566 1 76.724987449999 142.735413989511 1.04689075 0 0 0
3567 1 75.0200044 145.688590220978 1.04689075 0 0 0
3568 1 83.544987849999 136.829120589511 1.04689075 0 0 0
3569 1 81.83998774999901 139.782267289511 1.04689075 0 0 0
3570 1 80.134987649999 142.735413989511 1.04689075 0 0 0
3571 1 78.4300046 145.688590220978 1.04689075 0 0 0
3572 1 83.544987849999 142.735413989511 1.04689075 0 0 0
3573 1 81.83998774999901 145.688590220978 1.04689075 0 0 0
3574 2 76.72500450000001 134.860346279022 1.04689075 0 0 0
3575 2 75.0200044 137.813522510489 1.04689075 0 0 0
3576 2 73.315021350001 140.766669210489 1.04689075 0 0 0
3577 2 71.6100042 143.719815910489 1.04689075 0 0 0
3578 2 69.905021150001 146.672933079022 1.04689075 0 0 0
3579 2 80.135021750001 134.860346279022 1.04689075 0 0 0
3580 2 78.43002165000101 137.813522510489 1.04689075 0 0 0
3581 2 76.72500450000001 140.766669210489 1.04689075 0 0 0
3582 2 75.0200044 143.719815910489 1.04689075 0 0 0
3583 2 73.315021350001 146.672933079022 1.04689075 0 0 0
3584 2 97.18502275000101 146.672933079022 1.04689075 0 0 0
3585 2 81.84002185000101 137.813522510489 1.04689075 0 0 0
3586 2 80.135021750001 140.766669210489 1.04689075 0 0 0
3587 2 78.43002165000101 143.719815910489 1.04689075 0 0 0
3588 2 76.72500450000001 146.672933079022 1.04689075 0 0 0
3589 2 83.54500490000001 140.766669210489 1.04689075 0 0 0
3590 2 81.84002185000101 143.719815910489 1.04689075 0 0 0
3591 2 80.135021750001 146.672933079022 1.04689075 0 0 0
3592 2 83.54500490000001 146.672933079022 1.04689075 0 0 0
3593 1 86.95500510000001 119.110269920978 1.04689075 0 0 0
3594 1 85.25000500000002 122.063387089511 1.04689075 0 0 0
3595 1 90.36498824999902 119.110269920978 1.04689075 0 0 0
3596 1 88.65998814999901 122.063387089511 1.04689075 0 0 0
3597 1 86.95500510000001 125.016533789511 1.04689075 0 0 0
3598 1 85.25000500000002 127.969710020978 1.04689075 0 0 0
3599 1 93.774988449999 119.110269920978 1.04689075 0 0 0
3600 1 92.07000540000001 122.063387089511 1.04689075 0 0 0
3601 1 90.36498824999902 125.016533789511 1.04689075 0 0 0
3602 1 88.65998814999901 127.969710020978 1.04689075 0 0 0
3603 2 98.890022850001 143.719815910489 1.04689075 0 0 0
3604 1 97.18498864999901 119.110269920978 1.04689075 0 0 0
3605 1 95.4800056 122.063387089511 1.04689075 0 0 0
3606 1 93.774988449999 125.016533789511 1.04689075 0 0 0
3607 1 92.07000540000001 127.969710020978 1.04689075 0 0 0
3608 1 90.36498824999902 130.922827189511 1.04689075 0 0 0
3609 1 100.594988849999 119.110269920978 1.04689075 0 0 0
3610 1 98.889988749999 122.063387089511 1.04689075 0 0 0
3611 1 97.18498864999901 125.016533789511 1.04689075 0 0 0
3612 1 95.4800056 127.969710020978 1.04689075 0 0 0
3613 1 93.774988449999 130.922827189511 1.04689075 0 0 0
3614 2 85.25000500000002 120.094642310489 1.04689075 0 0 0
3615 2 88.6600052 120.094642310489 1.04689075 0 0 0
3616 2 86.95502215000101 123.04775947902199 1.04689075 0 0 0
3617 2 85.25000500000002 126.000906179022 1.04689075 0 0 0
3618 2 92.07000540000001 120.094642310489 1.04689075 0 0 0
3619 2 90.365022350001 123.04775947902199 1.04689075 0 0 0
3620 2 88.6600052 126.000906179022 1.04689075 0 0 0
3621 2 86.95502215000101 128.954082410489 1.04689075 0 0 0
3622 2 100.5950059 140.766669210489 1.04689075 0 0 0
3623 2 95.480022650001 120.094642310489 1.04689075 0 0 0
3624 2 93.7750055 123.04775947902199 1.04689075 0 0 0
3625 2 92.07000540000001 126.000906179022 1.04689075 0 0 0
3626 2 90.365022350001 128.954082410489 1.04689075 0 0 0
3627 2 88.6600052 131.907199579022 1.04689075 0 0 0
3628 2 98.890022850001 120.094642310489 1.04689075 0 0 0
3629 2 97.18502275000101 123.04775947902199 1.04689075 0 0 0
3630 2 95.480022650001 126.000906179022 1.04689075 0 0 0
3631 2 93.7750055 128.954082410489 1.04689075 0 0 0
3632 2 92.07000540000001 131.907199579022 1.04689075 0 0 0
3633 2 93.7750055 146.672933079022 1.04689075 0 0 0
3634 1 88.65998814999901 133.876003420978 1.04689075 0 0 0
3635 1 86.95500510000001 136.829120589511 1.04689075 0 0 0
3636 1 85.25000500000002 139.782267289511 1.04689075 0 0 0
3637 1 92.07000540000001 133.876003420978 1.04689075 0 0 0
3638 1 90.36498824999902 136.829120589511 1.04689075 0 0 0
3639 1 88.65998814999901 139.782267289511 1.04689075 0 0 0
3640 1 86.95500510000001 142.735413989511 1.04689075 0 0 0
3641 1 85.25000500000002 145.688590220978 1.04689075 0 0 0
3642 2 95.480022650001 143.719815910489 1.04689075 0 0 0
3643 2 85.25000500000002 137.813522510489 1.04689075 0 0 0
3644 2 90.365022350001 134.860346279022 1.04689075 0 0 0
3645 2 88.6600052 137.813522510489 1.04689075 0 0 0
3646 2 86.95502215000101 140.766669210489 1.04689075 0 0 0
3647 2 85.25000500000002 143.719815910489 1.04689075 0 0 0
3648 1 100.594988849999 125.016533789511 1.04689075 0 0 0
3649 1 98.889988749999 127.969710020978 1.04689075 0 0 0
3650 1 97.18498864999901 130.922827189511 1.04689075 0 0 0
3651 1 100.594988849999 130.922827189511 1.04689075 0 0 0
3652 2 100.5950059 123.04775947902199 1.04689075 0 0 0
3653 2 98.890022850001 126.000906179022 1.04689075 0 0 0
3654 2 97.18502275000101 128.954082410489 1.04689075 0 0 0
3655 2 95.480022650001 131.907199579022 1.04689075 0 0 0
3656 2 100.5950059 128.954082410489 1.04689075 0 0 0
3657 2 98.890022850001 131.907199579022 1.04689075 0 0 0
3658 1 95.4800056 133.876003420978 1.04689075 0 0 0
3659 1 93.774988449999 136.829120589511 1.04689075 0 0 0
3660 1 92.07000540000001 139.782267289511 1.04689075 0 0 0
3661 1 90.36498824999902 142.735413989511 1.04689075 0 0 0
3662 1 88.65998814999901 145.688590220978 1.04689075 0 0 0
3663 1 98.889988749999 133.876003420978 1.04689075 0 0 0
3664 1 97.18498864999901 136.829120589511 1.04689075 0 0 0
3665 1 95.4800056 139.782267289511 1.04689075 0 0 0
3666 1 93.774988449999 142.735413989511 1.04689075 0 0 0
3667 1 92.07000540000001 145.688590220978 1.04689075 0 0 0
3668 1 100.594988849999 136.829120589511 1.04689075 0 0 0
3669 1 98.889988749999 139.782267289511 1.04689075 0 0 0
3670 1 97.18498864999901 142.735413989511 1.04689075 0 0 0
3671 1 95.4800056 145.688590220978 1.04689075 0 0 0
3672 1 100.594988849999 142.735413989511 1.04689075 0 0 0
3673 1 98.889988749999 145.688590220978 1.04689075 0 0 0
3674 2 93.7750055 134.860346279022 1.04689075 0 0 0
3675 2 92.07000540000001 137.813522510489 1.04689075 0 0 0
3676 2 90.365022350001 140.766669210489 1.04689075 0 0 0
3677 2 88.6600052 143.719815910489 1.04689075 0 0 0
3678 2 86.95502215000101 146.672933079022 1.04689075 0 0 0
3679 2 97.18502275000101 134.860346279022 1.04689075 0 0 0
3680 2 95.480022650001 137.813522510489 1.04689075 0 0 0
3681 2 93.7750055 140.766669210489 1.04689075 0 0 0
3682 2 92.07000540000001 143.719815910489 1.04689075 0 0 0
3683 2 90.365022350001 146.672933079022 1.04689075 0 0 0
3684 2 100.5950059 134.860346279022 1.04689075 0 0 0
3685 2 98.890022850001 137.813522510489 1.04689075 0 0 0
3686 2 97.18502275000101 140.766669210489 1.04689075 0 0 0
4269 1 69.90500410000001 148.641736920978 1.04689075 0 0 0
4270 1 68.200004 151.594854089511 1.04689075 0 0 0
4271 1 73.314987249999 148.641736920978 1.04689075 0 0 0
4272 1 71.609987149999 151.594854089511 1.04689075 0 0 0
4273 1 69.90500410000001 154.54800078951098 1.04689075 0 0 0
4274 1 68.200004 157.501177020978 1.04689075 0 0 0
4275 1 76.724987449999 148.641736920978 1.04689075 0 0 0
4276 1 75.0200044 151.594854089511 1.04689075 0 0 0
4277 1 73.314987249999 154.54800078951098 1.04689075 0 0 0
4278 1 71.609987149999 157.501177020978 1.04689075 0 0 0
4279 1 69.90500410000001 160.454294189511 1.04689075 0 0 0
4280 1 80.134987649999 148.641736920978 1.04689075 0 0 0
4281 1 78.4300046 151.594854089511 1.04689075 0 0 0
4282 1 76.724987449999 154.54800078951098 1.04689075 0 0 0
4283 1 75.0200044 157.501177020978 1.04689075 0 0 0
4284 1 73.314987249999 160.454294189511 1.04689075 0 0 0
4285 1 83.544987849999 148.641736920978 1.04689075 0 0 0
4286 1 81.83998774999901 151.594854089511 1.04689075 0 0 0
4287 1 80.134987649999 154.54800078951098 1.04689075 0 0 0
4288 1 78.4300046 157.501177020978 1.04689075 0 0 0
4289 1 76.724987449999 160.454294189511 1.04689075 0 0 0
4290 2 68.200004 149.626109310489 1.04689075 0 0 0
4291 2 71.6100042 149.626109310489 1.04689075 0 0 0
4292 2 69.905021150001 152.579226479022 1.04689075 0 0 0
4293 2 68.200004 155.532373179022 1.04689075 0 0 0
4294 2 75.0200044 149.626109310489 1.04689075 0 0 0
4295 2 73.315021350001 152.579226479022 1.04689075 0 0 0
4296 2 71.6100042 155.532373179022 1.04689075 0 0 0
4297 2 69.905021150001 158.485549410489 1.04689075 0 0 0
4298 2 68.200004 161.438666579022 1.04689075 0 0 0
4299 2 78.43002165000101 149.626109310489 1.04689075 0 0 0
4300 2 76.72500450000001 152.579226479022 1.04689075 0 0 0
4301 2 75.0200044 155.532373179022 1.04689075 0 0 0
4302 2 73.315021350001 158.485549410489 1.04689075 0 0 0
4303 2 71.6100042 161.438666579022 1.04689075 0 0 0
4304 2 81.84002185000101 149.626109310489 1.04689075 0 0 0
4305 2 80.135021750001 152.579226479022 1.04689075 0 0 0
4306 2 78.43002165000101 155.532373179022 1.04689075 0 0 0
4307 2 76.72500450000001 158.485549410489 1.04689075 0 0 0
4308 2 75.0200044 161.438666579022 1.04689075 0 0 0
4309 1 68.200004 163.407470420978 1.04689075 0 0 0
4310 1 71.609987149999 163.407470420978 1.04689075 0 0 0
4311 1 69.90500410000001 166.360587589511 1.04689075 0 0 0
4312 1 68.200004 169.313734289511 1.04689075 0 0 0
4313 1 75.0200044 163.407470420978 1.04689075 0 0 0
4314 1 73.314987249999 166.360587589511 1.04689075 0 0 0
4315 1 71.609987149999 169.313734289511 1.04689075 0 0 0
4316 1 69.90500410000001 172.26688098951098 1.04689075 0 0 0
4317 1 68.200004 175.220057220978 1.04689075 0 0 0
4318 2 69.905021150001 164.391813279022 1.04689075 0 0 0
4319 2 68.200004 167.344989510489 1.04689075 0 0 0
4320 2 73.315021350001 164.391813279022 1.04689075 0 0 0
4321 2 71.6100042 167.344989510489 1.04689075 0 0 0
4322 2 69.905021150001 170.298136210489 1.04689075 0 0 0
4323 2 68.200004 173.25128291048898 1.04689075 0 0 0
4324 1 83.544987849999 154.54800078951098 1.04689075 0 0 0
4325 1 81.83998774999901 157.501177020978 1.04689075 0 0 0
4326 1 80.134987649999 160.454294189511 1.04689075 0 0 0
4327 2 100.5950059 176.20440007902198 1.04689075 0 0 0
4328 2 83.54500490000001 152.579226479022 1.04689075 0 0 0
4329 2 81.84002185000101 155.532373179022 1.04689075 0 0 0
4330 2 80.135021750001 158.485549410489 1.04689075 0 0 0
4331 2 78.43002165000101 161.438666579022 1.04689075 0 0 0
4332 2 83.54500490000001 158.485549410489 1.04689075 0 0 0
4333 2 81.84002185000101 161.438666579022 1.04689075 0 0 0
4334 1 78.4300046 163.407470420978 1.04689075 0 0 0
4335 1 76.724987449999 166.360587589511 1.04689075 0 0 0
4336 1 75.0200044 169.313734289511 1.04689075 0 0 0
4337 1 73.314987249999 172.26688098951098 1.04689075 0 0 0
4338 1 71.609987149999 175.220057220978 1.04689075 0 0 0
4339 1 81.83998774999901 163.407470420978 1.04689075 0 0 0
4340 1 80.134987649999 166.360587589511 1.04689075 0 0 0
4341 1 78.4300046 169.313734289511 1.04689075 0 0 0
4342 1 76.724987449999 172.26688098951098 1.04689075 0 0 0
4343 1 75.0200044 175.220057220978 1.04689075 0 0 0
4344 1 83.544987849999 166.360587589511 1.04689075 0 0 0
4345 1 81.83998774999901 169.313734289511 1.04689075 0 0 0
4346 1 80.134987649999 172.26688098951098 1.04689075 0 0 0
4347 1 78.4300046 175.220057220978 1.04689075 0 0 0
4348 1 83.544987849999 172.26688098951098 1.04689075 0 0 0
4349 1 81.83998774999901 175.220057220978 1.04689075 0 0 0
4350 2 76.72500450000001 164.391813279022 1.04689075 0 0 0
4351 2 75.0200044 167.344989510489 1.04689075 0 0 0
4352 2 73.315021350001 170.298136210489 1.04689075 0 0 0
4353 2 71.6100042 173.25128291048898 1.04689075 0 0 0
4354 2 69.905021150001 176.20440007902198 1.04689075 0 0 0
4355 2 80.135021750001 164.391813279022 1.04689075 0 0 0
4356 2 78.43002165000101 167.344989510489 1.04689075 0 0 0
4357 2 76.72500450000001 170.298136210489 1.04689075 0 0 0
4358 2 75.0200044 173.25128291048898 1.04689075 0 0 0
4359 2 73.315021350001 176.20440007902198 1.04689075 0 0 0
4360 2 97.18502275000101 176.20440007902198 1.04689075 0 0 0
4361 2 81.84002185000101 167.344989510489 1.04689075 0 0 0
4362 2 80.135021750001 170.298136210489 1.04689075 0 0 0
4363 2 78.43002165000101 173.25128291048898 1.04689075 0 0 0
4364 2 76.72500450000001 176.20440007902198 1.04689075 0 0 0
4365 2 83.54500490000001 170.298136210489 1.04689075 0 0 0
4366 2 81.84002185000101 173.25128291048898 1.04689075 0 0 0
4367 2 80.135021750001 176.20440007902198 1.04689075 0 0 0
4368 2 83.54500490000001 176.20440007902198 1.04689075 0 0 0
4369 1 86.95500510000001 148.641736920978 1.04689075 0 0 0
4370 1 85.25000500000002 151.594854089511 1.04689075 0 0 0
4371 1 90.36498824999902 148.641736920978 1.04689075 0 0 0
4372 1 88.65998814999901 151.594854089511 1.04689075 0 0 0
4373 1 86.95500510000001 154.54800078951098 1.04689075 0 0 0
4374 1 85.25000500000002 157.501177020978 1.04689075 0 0 0
4375 1 93.774988449999 148.641736920978 1.04689075 0 0 0
4376 1 92.07000540000001 151.594854089511 1.04689075 0 0 0
4377 1 90.36498824999902 154.54800078951098 1.04689075 0 0 0
4378 1 88.65998814999901 157.501177020978 1.04689075 0 0 0
4379 2 98.890022850001 173.25128291048898 1.04689075 0 0 0
4380 1 97.18498864999901 148.641736920978 1.04689075 0 0 0
4381 1 95.4800056 151.594854089511 1.04689075 0 0 0
4382 1 93.774988449999 154.54800078951098 1.04689075 0 0 0
4383 1 92.07000540000001 157.501177020978 1.04689075 0 0 0
4384 1 90.36498824999902 160.454294189511 1.04689075 0 0 0
4385 1 100.594988849999 148.641736920978 1.04689075 0 0 0
4386 1 98.889988749999 151.594854089511 1.04689075 0 0 0
4387 1 97.18498864999901 154.54800078951098 1.04689075 0 0 0
4388 1 95.4800056 157.501177020978 1.04689075 0 0 0
4389 1 93.774988449999 160.454294189511 1.04689075 0 0 0
4390 2 85.25000500000002 149.626109310489 1.04689075 0 0 0
4391 2 88.6600052 149.626109310489 1.04689075 0 0 0
4392 2 86.95502215000101 152.579226479022 1.04689075 0 0 0
4393 2 85.25000500000002 155.532373179022 1.04689075 0 0 0
4394 2 92.07000540000001 149.626109310489 1.04689075 0 0 0
4395 2 90.365022350001 152.579226479022 1.04689075 0 0 0
4396 2 88.6600052 155.532373179022 1.04689075 0 0 0
4397 2 86.95502215000101 158.485549410489 1.04689075 0 0 0
4398 2 100.5950059 170.298136210489 1.04689075 0 0 0
4399 2 95.480022650001 149.626109310489 1.04689075 0 0 0
4400 2 93.7750055 152.579226479022 1.04689075 0 0 0
4401 2 92.07000540000001 155.532373179022 1.04689075 0 0 0
4402 2 90.365022350001 158.485549410489 1.04689075 0 0 0
4403 2 88.6600052 161.438666579022 1.04689075 0 0 0
4404 2 98.890022850001 149.626109310489 1.04689075 0 0 0
4405 2 97.18502275000101 152.579226479022 1.04689075 0 0 0
4406 2 95.480022650001 155.532373179022 1.04689075 0 0 0
4407 2 93.7750055 158.485549410489 1.04689075 0 0 0
4408 2 92.07000540000001 161.438666579022 1.04689075 0 0 0
4409 2 93.7750055 176.20440007902198 1.04689075 0 0 0
4410 1 88.65998814999901 163.407470420978 1.04689075 0 0 0
4411 1 86.95500510000001 166.360587589511 1.04689075 0 0 0
4412 1 85.25000500000002 169.313734289511 1.04689075 0 0 0
4413 1 92.07000540000001 163.407470420978 1.04689075 0 0 0
4414 1 90.36498824999902 166.360587589511 1.04689075 0 0 0
4415 1 88.65998814999901 169.313734289511 1.04689075 0 0 0
4416 1 86.95500510000001 172.26688098951098 1.04689075 0 0 0
4417 1 85.25000500000002 175.220057220978 1.04689075 0 0 0
4418 2 95.480022650001 173.25128291048898 1.04689075 0 0 0
4419 2 85.25000500000002 167.344989510489 1.04689075 0 0 0
4420 2 90.365022350001 164.391813279022 1.04689075 0 0 0
4421 2 88.6600052 167.344989510489 1.04689075 0 0 0
4422 2 86.95502215000101 170.298136210489 1.04689075 0 0 0
4423 2 85.25000500000002 173.25128291048898 1.04689075 0 0 0
4424 1 100.594988849999 154.54800078951098 1.04689075 0 0 0
4425 1 98.889988749999 157.501177020978 1.04689075 0 0 0
4426 1 97.18498864999901 160.454294189511 1.04689075 0 0 0
4427 1 100.594988849999 160.454294189511 1.04689075 0 0 0
4428 2 100.5950059 152.579226479022 1.04689075 0 0 0
4429 2 98.890022850001 155.532373179022 1.04689075 0 0 0
4430 2 97.18502275000101 158.485549410489 1.04689075 0 0 0
4431 2 95.480022650001 161.438666579022 1.04689075 0 0 0
4432 2 100.5950059 158.485549410489 1.04689075 0 0 0
4433 2 98.890022850001 161.438666579022 1.04689075 0 0 0
4434 1 95.4800056 163.407470420978 1.04689075 0 0 0
4435 1 93.774988449999 166.360587589511 1.04689075 0 0 0
4436 1 92.07000540000001 169.313734289511 1.04689075 0 0 0
4437 1 90.36498824999902 172.26688098951098 1.04689075 0 0 0
4438 1 88.65998814999901 175.220057220978 1.04689075 0 0 0
4439 1 98.889988749999 163.407470420978 1.04689075 0 0 0
4440 1 97.18498864999901 166.360587589511 1.04689075 0 0 0
4441 1 95.4800056 169.313734289511 1.04689075 0 0 0
4442 1 93.774988449999 172.26688098951098 1.04689075 0 0 0
4443 1 92.07000540000001 175.220057220978 1.04689075 0 0 0
4444 1 100.594988849999 166.360587589511 1.04689075 0 0 0
4445 1 98.889988749999 169.313734289511 1.04689075 0 0 0
4446 1 97.18498864999901 172.26688098951098 1.04689075 0 0 0
4447 1 95.4800056 175.220057220978 1.04689075 0 0 0
4448 1 100.594988849999 172.26688098951098 1.04689075 0 0 0
4449 1 98.889988749999 175.220057220978 1.04689075 0 0 0
4450 2 93.7750055 164.391813279022 1.04689075 0 0 0
4451 2 92.07000540000001 167.344989510489 1.04689075 0 0 0
4452 2 90.365022350001 170.298136210489 1.04689075 0 0 0
4453 2 88.6600052 173.25128291048898 1.04689075 0 0 0
4454 2 86.95502215000101 176.20440007902198 1.04689075 0 0 0
4455 2 97.18502275000101 164.391813279022 1.04689075 0 0 0
4456 2 95.480022650001 167.344989510489 1.04689075 0 0 0
4457 2 93.7750055 170.298136210489 1.04689075 0 0 0
4458 2 92.07000540000001 173.25128291048898 1.04689075 0 0 0
4459 2 90.365022350001 176.20440007902198 1.04689075 0 0 0
4460 2 100.5950059 164.391813279022 1.04689075 0 0 0
4461 2 98.890022850001 167.344989510489 1.04689075 0 0 0
4462 2 97.18502275000101 170.298136210489 1.04689075 0 0 0
5045 1 69.90500410000001 178.173203920978 1.04689075 0 0 0
5046 1 68.200004 181.126321089511 1.04689075 0 0 0
5047 1 73.314987249999 178.173203920978 1.04689075 0 0 0
5048 1 71.609987149999 181.126321089511 1.04689075 0 0 0
5049 1 69.90500410000001 184.079467789511 1.04689075 0 0 0
5050 1 68.200004 187.032644020978 1.04689075 0 0 0
5051 1 76.724987449999 178.173203920978 1.04689075 0 0 0
5052 1 75.0200044 181.126321089511 1.04689075 0 0 0
5053 1 73.314987249999 184.079467789511 1.04689075 0 0 0
5054 1 71.609987149999 187.032644020978 1.04689075 0 0 0
5055 1 69.90500410000001 189.985761189511 1.04689075 0 0 0
5056 1 80.134987649999 178.173203920978 1.04689075 0 0 0
5057 1 78.4300046 181.126321089511 1.04689075 0 0 0
5058 1 76.724987449999 184.079467789511 1.04689075 0 0 0
5059 1 75.0200044 187.032644020978 1.04689075 0 0 0
5060 1 73.314987249999 189.985761189511 1.04689075 0 0 0
5061 1 83.544987849999 178.173203920978 1.04689075 0 0 0
5062 1 81.83998774999901 181.126321089511 1.04689075 0 0 0
5063 1 80.134987649999 184.079467789511 1.04689075 0 0 0
5064 1 78.4300046 187.032644020978 1.04689075 0 0 0
5065 1 76.724987449999 189.985761189511 1.04689075 0 0 0
5066 2 68.200004 179.15757631048902 1.04689075 0 0 0
5067 2 71.6100042 179.15757631048902 1.04689075 0 0 0
5068 2 69.905021150001 182.11069347902202 1.04689075 0 0 0
5069 2 68.200004 185.063840179022 1.04689075 0 0 0
5070 2 75.0200044 179.15757631048902 1.04689075 0 0 0
5071 2 73.315021350001 182.11069347902202 1.04689075 0 0 0
5072 2 71.6100042 185.063840179022 1.04689075 0 0 0
5073 2 69.905021150001 188.01701641048902 1.04689075 0 0 0
5074 2 68.200004 190.97013357902202 1.04689075 0 0 0
5075 2 78.43002165000101 179.15757631048902 1.04689075 0 0 0
5076 2 76.72500450000001 182.11069347902202 1.04689075 0 0 0
5077 2 75.0200044 185.063840179022 1.04689075 0 0 0
5078 2 73.315021350001 188.01701641048902 1.04689075 0 0 0
5079 2 71.6100042 190.97013357902202 1.04689075 0 0 0
5080 2 81.84002185000101 179.15757631048902 1.04689075 0 0 0
5081 2 80.135021750001 182.11069347902202 1.04689075 0 0 0
5082 2 78.43002165000101 185.063840179022 1.04689075 0 0 0
5083 2 76.72500450000001 188.01701641048902 1.04689075 0 0 0
5084 2 75.0200044 190.97013357902202 1.04689075 0 0 0
5085 1 68.200004 192.93893742097802 1.04689075 0 0 0
5086 1 71.609987149999 192.93893742097802 1.04689075 0 0 0
5087 1 69.90500410000001 195.89205458951102 1.04689075 0 0 0
5088 1 68.200004 198.845201289511 1.04689075 0 0 0
5089 1 75.0200044 192.93893742097802 1.04689075 0 0 0
5090 1 73.314987249999 195.89205458951102 1.04689075 0 0 0
5091 1 71.609987149999 198.845201289511 1.04689075 0 0 0
5092 1 69.90500410000001 201.798347989511 1.04689075 0 0 0
5093 1 68.200004 204.751524220978 1.04689075 0 0 0
5094 2 69.905021150001 193.923280279022 1.04689075 0 0 0
5095 2 68.200004 196.87645651048902 1.04689075 0 0 0
5096 2 73.315021350001 193.923280279022 1.04689075 0 0 0
5097 2 71.6100042 196.87645651048902 1.04689075 0 0 0
5098 2 69.905021150001 199.829603210489 1.04689075 0 0 0
5099 2 68.200004 202.782749910489 1.04689075 0 0 0
5100 1 83.544987849999 184.079467789511 1.04689075 0 0 0
5101 1 81.83998774999901 187.032644020978 1.04689075 0 0 0
5102 1 80.134987649999 189.985761189511 1.04689075 0 0 0
5103 2 100.5950059 205.735867079022 1.04689075 0 0 0
5104 2 83.54500490000001 182.11069347902202 1.04689075 0 0 0
5105 2 81.84002185000101 185.063840179022 1.04689075 0 0 0
5106 2 80.135021750001 188.01701641048902 1.04689075 0 0 0
5107 2 78.43002165000101 190.97013357902202 1.04689075 0 0 0
5108 2 83.54500490000001 188.01701641048902 1.04689075 0 0 0
5109 2 81.84002185000101 190.97013357902202 1.04689075 0 0 0
5110 1 78.4300046 192.93893742097802 1.04689075 0 0 0
5111 1 76.724987449999 195.89205458951102 1.04689075 0 0 0
5112 1 75.0200044 198.845201289511 1.04689075 0 0 0
5113 1 73.314987249999 201.798347989511 1.04689075 0 0 0
5114 1 71.609987149999 204.751524220978 1.04689075 0 0 0
5115 1 81.83998774999901 192.93893742097802 1.04689075 0 0 0
5116 1 80.134987649999 195.89205458951102 1.04689075 0 0 0
5117 1 78.4300046 198.845201289511 1.04689075 0 0 0
5118 1 76.724987449999 201.798347989511 1.04689075 0 0 0
5119 1 75.0200044 204.751524220978 1.04689075 0 0 0
5120 1 83.544987849999 195.89205458951102 1.04689075 0 0 0
5121 1 81.83998774999901 198.845201289511 1.04689075 0 0 0
5122 1 80.134987649999 201.798347989511 1.04689075 0 0 0
5123 1 78.4300046 204.751524220978 1.04689075 0 0 0
5124 1 83.544987849999 201.798347989511 1.04689075 0 0 0
5125 1 81.83998774999901 204.751524220978 1.04689075 0 0 0
5126 2 76.72500450000001 193.923280279022 1.04689075 0 0 0
5127 2 75.0200044 196.87645651048902 1.04689075 0 0 0
5128 2 73.315021350001 199.829603210489 1.04689075 0 0 0
5129 2 71.6100042 202.782749910489 1.04689075 0 0 0
5130 2 69.905021150001 205.735867079022 1.04689075 0 0 0
5131 2 80.135021750001 193.923280279022 1.04689075 0 0 0
5132 2 78.43002165000101 196.87645651048902 1.04689075 0 0 0
5133 2 76.72500450000001 199.829603210489 1.04689075 0 0 0
5134 2 75.0200044 202.782749910489 1.04689075 0 0 0
5135 2 73.315021350001 205.735867079022 1.04689075 0 0 0
5136 2 97.18502275000101 205.735867079022 1.04689075 0 0 0
5137 2 81.84002185000101 196.87645651048902 1.04689075 0 0 0
5138 2 80.135021750001 199.829603210489 1.04689075 0 0 0
5139 2 78.43002165000101 202.782749910489 1.04689075 0 0 0
5140 2 76.72500450000001 205.735867079022 1.04689075 0 0 0
5141 2 83.54500490000001 199.829603210489 1.04689075 0 0 0
5142 2 81.84002185000101 202.782749910489 1.04689075 0 0 0
5143 2 80.135021750001 205.735867079022 1.04689075 0 0 0
5144 2 83.54500490000001 205.735867079022 1.04689075 0 0 0
5145 1 86.95500510000001 178.173203920978 1.04689075 0 0 0
5146 1 85.25000500000002 181.126321089511 1.04689075 0 0 0
5147 1 90.36498824999902 178.173203920978 1.04689075 0 0 0
5148 1 88.65998814999901 181.126321089511 1.04689075 0 0 0
5149 1 86.95500510000001 184.079467789511 1.04689075 0 0 0
5150 1 85.25000500000002 187.032644020978 1.04689075 0 0 0
5151 1 93.774988449999 178.173203920978 1.04689075 0 0 0
5152 1 92.07000540000001 181.126321089511 1.04689075 0 0 0
5153 1 90.36498824999902 184.079467789511 1.04689075 0 0 0
5154 1 88.65998814999901 187.032644020978 1.04689075 0 0 0
5155 2 98.890022850001 202.782749910489 1.04689075 0 0 0
5156 1 97.18498864999901 178.173203920978 1.04689075 0 0 0
5157 1 95.4800056 181.126321089511 1.04689075 0 0 0
5158 1 93.774988449999 184.079467789511 1.04689075 0 0 0
5159 1 92.07000540000001 187.032644020978 1.04689075 0 0 0
5160 1 90.36498824999902 189.985761189511 1.04689075 0 0 0
5161 1 100.594988849999 178.173203920978 1.04689075 0 0 0
5162 1 98.889988749999 181.126321089511 1.04689075 0 0 0
5163 1 97.18498864999901 184.079467789511 1.04689075 0 0 0
5164 1 95.4800056 187.032644020978 1.04689075 0 0 0
5165 1 93.774988449999 189.985761189511 1.04689075 0 0 0
5166 2 85.25000500000002 179.15757631048902 1.04689075 0 0 0
5167 2 88.6600052 179.15757631048902 1.04689075 0 0 0
5168 2 86.95502215000101 182.11069347902202 1.04689075 0 0 0
5169 2 85.25000500000002 185.063840179022 1.04689075 0 0 0
5170 2 92.07000540000001 179.15757631048902 1.04689075 0 0 0
5171 2 90.365022350001 182.11069347902202 1.04689075 0 0 0
5172 2 88.6600052 185.063840179022 1.04689075 0 0 0
5173 2 86.95502215000101 188.01701641048902 1.04689075 0 0 0
5174 2 100.5950059 199.829603210489 1.04689075 0 0 0
5175 2 95.480022650001 179.15757631048902 1.04689075 0 0 0
5176 2 93.7750055 182.11069347902202 1.04689075 0 0 0
5177 2 92.07000540000001 185.063840179022 1.04689075 0 0 0
5178 2 90.365022350001 188.01701641048902 1.04689075 0 0 0
5179 2 88.6600052 190.97013357902202 1.04689075 0 0 0
5180 2 98.890022850001 179.15757631048902 1.04689075 0 0 0
5181 2 97.18502275000101 182.11069347902202 1.04689075 0 0 0
5182 2 95.480022650001 185.063840179022 1.04689075 0 0 0
5183 2 93.7750055 188.01701641048902 1.04689075 0 0 0
5184 2 92.07000540000001 190.97013357902202 1.04689075 0 0 0
5185 2 93.7750055 205.735867079022 1.04689075 0 0 0
5186 1 88.65998814999901 192.93893742097802 1.04689075 0 0 0
5187 1 86.95500510000001 195.89205458951102 1.04689075 0 0 0
5188 1 85.25000500000002 198.845201289511 1.04689075 0 0 0
5189 1 92.07000540000001 192.93893742097802 1.04689075 0 0 0
5190 1 90.36498824999902 195.89205458951102 1.04689075 0 0 0
5191 1 88.65998814999901 198.845201289511 1.04689075 0 0 0
5192 1 86.95500510000001 201.798347989511 1.04689075 0 0 0
5193 1 85.25000500000002 204.751524220978 1.04689075 0 0 0
5194 2 95.480022650001 202.782749910489 1.04689075 0 0 0
5195 2 85.25000500000002 196.87645651048902 1.04689075 0 0 0
5196 2 90.365022350001 193.923280279022 1.04689075 0 0 0
5197 2 88.6600052 196.87645651048902 1.04689075 0 0 0
5198 2 86.95502215000101 199.829603210489 1.04689075 0 0 0
5199 2 85.25000500000002 202.782749910489 1.04689075 0 0 0
5200 1 100.594988849999 184.079467789511 1.04689075 0 0 0
5201 1 98.889988749999 187.032644020978 1.04689075 0 0 0
5202 1 97.18498864999901 189.985761189511 1.04689075 0 0 0
5203 1 100.594988849999 189.985761189511 1.04689075 0 0 0
5204 2 100.5950059 182.11069347902202 1.04689075 0 0 0
5205 2 98.890022850001 185.063840179022 1.04689075 0 0 0
5206 2 97.18502275000101 188.01701641048902 1.04689075 0 0 0
5207 2 95.480022650001 190.97013357902202 1.04689075 0 0 0
5208 2 100.5950059 188.01701641048902 1.04689075 0 0 0
5209 2 98.890022850001 190.97013357902202 1.04689075 0 0 0
5210 1 95.4800056 192.93893742097802 1.04689075 0 0 0
5211 1 93.774988449999 195.89205458951102 1.04689075 0 0 0
5212 1 92.07000540000001 198.845201289511 1.04689075 0 0 0
5213 1 90.36498824999902 201.798347989511 1.04689075 0 0 0
5214 1 88.65998814999901 204.751524220978 1.04689075 0 0 0
5215 1 98.889988749999 192.93893742097802 1.04689075 0 0 0
5216 1 97.18498864999901 195.89205458951102 1.04689075 0 0 0
5217 1 95.4800056 198.845201289511 1.04689075 0 0 0
5218 1 93.774988449999 201.798347989511 1.04689075 0 0 0
5219 1 92.07000540000001 204.751524220978 1.04689075 0 0 0
5220 1 100.594988849999 195.89205458951102 1.04689075 0 0 0
5221 1 98.889988749999 198.845201289511 1.04689075 0 0 0
5222 1 97.18498864999901 201.798347989511 1.04689075 0 0 0
5223 1 95.4800056 204.751524220978 1.04689075 0 0 0
5224 1 100.594988849999 201.798347989511 1.04689075 0 0 0
5225 1 98.889988749999 204.751524220978 1.04689075 0 0 0
5226 2 93.7750055 193.923280279022 1.04689075 0 0 0
5227 2 92.07000540000001 196.87645651048902 1.04689075 0 0 0
5228 2 90.365022350001 199.829603210489 1.04689075 0 0 0
5229 2 88.6600052 202.782749910489 1.04689075 0 0 0
5230 2 86.95502215000101 205.735867079022 1.04689075 0 0 0
5231 2 97.18502275000101 193.923280279022 1.04689075 0 0 0
5232 2 95.480022650001 196.87645651048902 1.04689075 0 0 0
5233 2 93.7750055 199.829603210489 1.04689075 0 0 0
5234 2 92.07000540000001 202.782749910489 1.04689075 0 0 0
5235 2 90.365022350001 205.735867079022 1.04689075 0 0 0
5236 2 100.5950059 193.923280279022 1.04689075 0 0 0
5237 2 98.890022850001 196.87645651048902 1.04689075 0 0 0
5238 2 97.18502275000101 199.829603210489 1.04689075 0 0 0
5821 1 69.90500410000001 207.704670920978 1.04689075 0 0 0
5822 1 68.200004 210.657788089511 1.04689075 0 0 0
5823 1 73.314987249999 207.704670920978 1.04689075 0 0 0
5824 1 71.609987149999 210.657788089511 1.04689075 0 0 0
5825 1 69.90500410000001 213.610934789511 1.04689075 0 0 0
5826 1 68.200004 216.564111020978 1.04689075 0 0 0
5827 1 76.724987449999 207.704670920978 1.04689075 0 0 0
5828 1 75.0200044 210.657788089511 1.04689075 0 0 0
5829 1 73.314987249999 213.610934789511 1.04689075 0 0 0
5830 1 71.609987149999 216.564111020978 1.04689075 0 0 0
5831 1 69.90500410000001 219.517228189511 1.04689075 0 0 0
5832 1 80.134987649999 207.704670920978 1.04689075 0 0 0
5833 1 78.4300046 210.657788089511 1.04689075 0 0 0
5834 1 76.724987449999 213.610934789511 1.04689075 0 0 0
5835 1 75.0200044 216.564111020978 1.04689075 0 0 0
5836 1 73.314987249999 219.517228189511 1.04689075 0 0 0
5837 1 83.544987849999 207.704670920978 1.04689075 0 0 0
5838 1 81.83998774999901 210.657788089511 1.04689075 0 0 0
5839 1 80.134987649999 213.610934789511 1.04689075 0 0 0
5840 1 78.4300046 216.564111020978 1.04689075 0 0 0
5841 1 76.724987449999 219.517228189511 1.04689075 0 0 0
5842 2 68.200004 208.689043310489 1.04689075 0 0 0
5843 2 71.6100042 208.689043310489 1.04689075 0 0 0
5844 2 69.905021150001 211.642160479022 1.04689075 0 0 0
5845 2 68.200004 214.595307179022 1.04689075 0 0 0
5846 2 75.0200044 208.689043310489 1.04689075 0 0 0
5847 2 73.315021350001 211.642160479022 1.04689075 0 0 0
5848 2 71.6100042 214.595307179022 1.04689075 0 0 0
5849 2 69.905021150001 217.548483410489 1.04689075 0 0 0
5850 2 68.200004 220.501600579022 1.04689075 0 0 0
5851 2 78.43002165000101 208.689043310489 1.04689075 0 0 0
5852 2 76.72500450000001 211.642160479022 1.04689075 0 0 0
5853 2 75.0200044 214.595307179022 1.04689075 0 0 0
5854 2 73.315021350001 217.548483410489 1.04689075 0 0 0
5855 2 71.6100042 220.501600579022 1.04689075 0 0 0
5856 2 81.84002185000101 208.689043310489 1.04689075 0 0 0
5857 2 80.135021750001 211.642160479022 1.04689075 0 0 0
5858 2 78.43002165000101 214.595307179022 1.04689075 0 0 0
5859 2 76.72500450000001 217.548483410489 1.04689075 0 0 0
5860 2 75.0200044 220.501600579022 1.04689075 0 0 0
5861 1 68.200004 222.470404420978 1.04689075 0 0 0
5862 1 71.609987149999 222.470404420978 1.04689075 0 0 0
5863 1 69.90500410000001 225.423521589511 1.04689075 0 0 0
5864 1 68.200004 228.376668289511 1.04689075 0 0 0
5865 1 75.0200044 222.470404420978 1.04689075 0 0 0
5866 1 73.314987249999 225.423521589511 1.04689075 0 0 0
5867 1 71.609987149999 228.376668289511 1.04689075 0 0 0
5868 1 69.90500410000001 231.329814989511 1.04689075 0 0 0
5869 1 68.200004 234.282991220978 1.04689075 0 0 0
5870 2 69.905021150001 223.454747279022 1.04689075 0 0 0
5871 2 68.200004 226.407923510489 1.04689075 0 0 0
5872 2 73.315021350001 223.454747279022 1.04689075 0 0 0
5873 2 71.6100042 226.407923510489 1.04689075 0 0 0
5874 2 69.905021150001 229.361070210489 1.04689075 0 0 0
5875 2 68.200004 232.314216910489 1.04689075 0 0 0
5876 1 83.544987849999 213.610934789511 1.04689075 0 0 0
5877 1 81.83998774999901 216.564111020978 1.04689075 0 0 0
5878 1 80.134987649999 219.517228189511 1.04689075 0 0 0
5879 2 100.5950059 235.267334079022 1.04689075 0 0 0
5880 2 83.54500490000001 211.642160479022 1.04689075 0 0 0
5881 2 81.84002185000101 214.595307179022 1.04689075 0 0 0
5882 2 80.135021750001 217.548483410489 1.04689075 0 0 0
5883 2 78.43002165000101 220.501600579022 1.04689075 0 0 0
5884 2 83.54500490000001 217.548483410489 1.04689075 0 0 0
5885 2 81.84002185000101 220.501600579022 1.04689075 0 0 0
5886 1 78.4300046 222.470404420978 1.04689075 0 0 0
5887 1 76.724987449999 225.423521589511 1.04689075 0 0 0
5888 1 75.0200044 228.376668289511 1.04689075 0 0 0
5889 1 73.314987249999 231.329814989511 1.04689075 0 0 0
5890 1 71.609987149999 234.282991220978 1.04689075 0 0 0
5891 1 81.83998774999901 222.470404420978 1.04689075 0 0 0
5892 1 80.134987649999 225.423521589511 1.04689075 0 0 0
5893 1 78.4300046 228.376668289511 1.04689075 0 0 0
5894 1 76.724987449999 231.329814989511 1.04689075 0 0 0
5895 1 75.0200044 234.282991220978 1.04689075 0 0 0
5896 1 83.544987849999 225.423521589511 1.04689075 0 0 0
5897 1 81.83998774999901 228.376668289511 1.04689075 0 0 0
5898 1 80.134987649999 231.329814989511 1.04689075 0 0 0
5899 1 78.4300046 234.282991220978 1.04689075 0 0 0
5900 1 83.544987849999 231.329814989511 1.04689075 0 0 0
5901 1 81.83998774999901 234.282991220978 1.04689075 0 0 0
5902 2 76.72500450000001 223.454747279022 1.04689075 0 0 0
5903 2 75.0200044 226.407923510489 1.04689075 0 0 0
5904 2 73.315021350001 229.361070210489 1.04689075 0 0 0
5905 2 71.6100042 232.314216910489 1.04689075 0 0 0
5906 2 69.905021150001 235.267334079022 1.04689075 0 0 0
5907 2 80.135021750001 223.454747279022 1.04689075 0 0 0
5908 2 78.43002165000101 226.407923510489 1.04689075 0 0 0
5909 2 76.72500450000001 229.361070210489 1.04689075 0 0 0
5910 2 75.0200044 232.314216910489 1.04689075 0 0 0
5911 2 73.315021350001 235.267334079022 1.04689075 0 0 0
5912 2 97.18502275000101 235.267334079022 1.04689075 0 0 0
5913 2 81.84002185000101 226.407923510489 1.04689075 0 0 0
5914 2 80.135021750001 229.361070210489 1.04689075 0 0 0
5915 2 78.43002165000101 232.314216910489 1.04689075 0 0 0
5916 2 76.72500450000001 235.267334079022 1.04689075 0 0 0
5917 2 83.54500490000001 229.361070210489 1.04689075 0 0 0
5918 2 81.84002185000101 232.314216910489 1.04689075 0 0 0
5919 2 80.135021750001 235.267334079022 1.04689075 0 0 0
5920 2 83.54500490000001 235.267334079022 1.04689075 0 0 0
5921 1 86.95500510000001 207.704670920978 1.04689075 0 0 0
5922 1 85.25000500000002 210.657788089511 1.04689075 0 0 0
5923 1 90.36498824999902 207.704670920978 1.04689075 0 0 0
5924 1 88.65998814999901 210.657788089511 1.04689075 0 0 0
5925 1 86.95500510000001 213.610934789511 1.04689075 0 0 0
5926 1 85.25000500000002 216.564111020978 1.04689075 0 0 0
5927 1 93.774988449999 207.704670920978 1.04689075 0 0 0
5928 1 92.07000540000001 210.657788089511 1.04689075 0 0 0
5929 1 90.36498824999902 213.610934789511 1.04689075 0 0 0
5930 1 88.65998814999901 216.564111020978 1.04689075 0 0 0
5931 2 98.890022850001 232.314216910489 1.04689075 0 0 0
5932 1 97.18498864999901 207.704670920978 1.04689075 0 0 0
5933 1 95.4800056 210.657788089511 1.04689075 0 0 0
5934 1 93.774988449999 213.610934789511 1.04689075 0 0 0
5935 1 92.07000540000001 216.564111020978 1.04689075 0 0 0
5936 1 90.36498824999902 219.517228189511 1.04689075 0 0 0
5937 1 100.594988849999 207.704670920978 1.04689075 0 0 0
5938 1 98.889988749999 210.657788089511 1.04689075 0 0 0
5939 1 97.18498864999901 213.610934789511 1.04689075 0 0 0
5940 1 95.4800056 216.564111020978 1.04689075 0 0 0
5941 1 93.774988449999 219.517228189511 1.04689075 0 0 0
5942 2 85.25000500000002 208.689043310489 1.04689075 0 0 0
5943 2 88.6600052 208.689043310489 1.04689075 0 0 0
5944 2 86.95502215000101 211.642160479022 1.04689075 0 0 0
5945 2 85.25000500000002 214.595307179022 1.04689075 0 0 0
5946 2 92.07000540000001 208.689043310489 1.04689075 0 0 0
5947 2 90.365022350001 211.642160479022 1.04689075 0 0 0
5948 2 88.6600052 214.595307179022 1.04689075 0 0 0
5949 2 86.95502215000101 217.548483410489 1.04689075 0 0 0
5950 2 100.5950059 229.361070210489 1.04689075 0 0 0
5951 2 95.480022650001 208.689043310489 1.04689075 0 0 0
5952 2 93.7750055 211.642160479022 1.04689075 0 0 0
5953 2 92.07000540000001 214.595307179022 1.04689075 0 0 0
5954 2 90.365022350001 217.548483410489 1.04689075 0 0 0
5955 2 88.6600052 220.501600579022 1.04689075 0 0 0
5956 2 98.890022850001 208.689043310489 1.04689075 0 0 0
5957 2 97.18502275000101 211.642160479022 1.04689075 0 0 0
5958 2 95.480022650001 214.595307179022 1.04689075 0 0 0
5959 2 93.7750055 217.548483410489 1.04689075 0 0 0
5960 2 92.07000540000001 220.501600579022 1.04689075 0 0 0
5961 2 93.7750055 235.267334079022 1.04689075 0 0 0
5962 1 88.65998814999901 222.470404420978 1.04689075 0 0 0
5963 1 86.95500510000001 225.423521589511 1.04689075 0 0 0
5964 1 85.25000500000002 228.376668289511 1.04689075 0 0 0
5965 1 92.07000540000001 222.470404420978 1.04689075 0 0 0
5966 1 90.36498824999902 225.423521589511 1.04689075 0 0 0
5967 1 88.65998814999901 228.376668289511 1.04689075 0 0 0
5968 1 86.95500510000001 231.329814989511 1.04689075 0 0 0
5969 1 85.25000500000002 234.282991220978 1.04689075 0 0 0
5970 2 95.480022650001 232.314216910489 1.04689075 0 0 0
5971 2 85.25000500000002 226.407923510489 1.04689075 0 0 0
5972 2 90.365022350001 223.454747279022 1.04689075 0 0 0
5973 2 88.6600052 226.407923510489 1.04689075 0 0 0
5974 2 86.95502215000101 229.361070210489 1.04689075 0 0 0
5975 2 85.25000500000002 232.314216910489 1.04689075 0 0 0
5976 1 100.594988849999 213.610934789511 1.04689075 0 0 0
5977 1 98.889988749999 216.564111020978 1.04689075 0 0 0
5978 1 97.18498864999901 219.517228189511 1.04689075 0 0 0
5979 1 100.594988849999 219.517228189511 1.04689075 0 0 0
5980 2 100.5950059 211.642160479022 1.04689075 0 0 0
5981 2 98.890022850001 214.595307179022 1.04689075 0 0 0
5982 2 97.18502275000101 217.548483410489 1.04689075 0 0 0
5983 2 95.480022650001 220.501600579022 1.04689075 0 0 0
5984 2 100.5950059 217.548483410489 1.04689075 0 0 0
5985 2 98.890022850001 220.501600579022 1.04689075 0 0 0
5986 1 95.4800056 222.470404420978 1.04689075 0 0 0
5987 1 93.774988449999 225.423521589511 1.04689075 0 0 0
5988 1 92.07000540000001 228.376668289511 1.04689075 0 0 0
5989 1 90.36498824999902 231.329814989511 1.04689075 0 0 0
5990 1 88.65998814999901 234.282991220978 1.04689075 0 0 0
5991 1 98.889988749999 222.470404420978 1.04689075 0 0 0
5992 1 97.18498864999901 225.423521589511 1.04689075 0 0 0
5993 1 95.4800056 228.376668289511 1.04689075 0 0 0
5994 1 93.774988449999 231.329814989511 1.04689075 0 0 0
5995 1 92.07000540000001 234.282991220978 1.04689075 0 0 0
5996 1 100.594988849999 225.423521589511 1.04689075 0 0 0
5997 1 98.889988749999 228.376668289511 1.04689075 0 0 0
5998 1 97.18498864999901 231.329814989511 1.04689075 0 0 0
5999 1 95.4800056 234.282991220978 1.04689075 0 0 0
6000 1 100.594988849999 231.329814989511 1.04689075 0 0 0
6001 1 98.889988749999 234.282991220978 1.04689075 0 0 0
6002 2 93.7750055 223.454747279022 1.04689075 0 0 0
6003 2 92.07000540000001 226.407923510489 1.04689075 0 0 0
6004 2 90.365022350001 229.361070210489 1.04689075 0 0 0
6005 2 88.6600052 232.314216910489 1.04689075 0 0 0
6006 2 86.95502215000101 235.267334079022 1.04689075 0 0 0
6007 2 97.18502275000101 223.454747279022 1.04689075 0 0 0
6008 2 95.480022650001 226.407923510489 1.04689075 0 0 0
6009 2 93.7750055 229.361070210489 1.04689075 0 0 0
6010 2 92.07000540000001 232.314216910489 1.04689075 0 0 0
6011 2 90.365022350001 235.267334079022 1.04689075 0 0 0
6012 2 100.5950059 223.454747279022 1.04689075 0 0 0
6013 2 98.890022850001 226.407923510489 1.04689075 0 0 0
6014 2 97.18502275000101 229.361070210489 1.04689075 0 0 0
6597 1 69.90500410000001 237.236137920978 1.04689075 0 0 0
6598 1 68.200004 240.189255089511 1.04689075 0 0 0
6599 1 73.314987249999 237.236137920978 1.04689075 0 0 0
6600 1 71.609987149999 240.189255089511 1.04689075 0 0 0
6601 1 69.90500410000001 243.14240178951098 1.04689075 0 0 0
6602 1 68.200004 246.095578020978 1.04689075 0 0 0
6603 1 76.724987449999 237.236137920978 1.04689075 0 0 0
6604 1 75.0200044 240.189255089511 1.04689075 0 0 0
6605 1 73.314987249999 243.14240178951098 1.04689075 0 0 0
6606 1 71.609987149999 246.095578020978 1.04689075 0 0 0
6607 1 69.90500410000001 249.048695189511 1.04689075 0 0 0
6608 1 80.134987649999 237.236137920978 1.04689075 0 0 0
6609 1 78.4300046 240.189255089511 1.04689075 0 0 0
6610 1 76.724987449999 243.14240178951098 1.04689075 0 0 0
6611 1 75.0200044 246.095578020978 1.04689075 0 0 0
6612 1 73.314987249999 249.048695189511 1.04689075 0 0 0
6613 1 83.544987849999 237.236137920978 1.04689075 0 0 0
6614 1 81.83998774999901 240.189255089511 1.04689075 0 0 0
6615 1 80.134987649999 243.14240178951098 1.04689075 0 0 0
6616 1 78.4300046 246.095578020978 1.04689075 0 0 0
6617 1 76.724987449999 249.048695189511 1.04689075 0 0 0
6618 2 68.200004 238.220510310489 1.04689075 0 0 0
6619 2 71.6100042 238.220510310489 1.04689075 0 0 0
6620 2 69.905021150001 241.173627479022 1.04689075 0 0 0
6621 2 68.200004 244.126774179022 1.04689075 0 0 0
6622 2 75.0200044 238.220510310489 1.04689075 0 0 0
6623 2 73.315021350001 241.173627479022 1.04689075 0 0 0
6624 2 71.6100042 244.126774179022 1.04689075 0 0 0
6625 2 69.905021150001 247.079950410489 1.04689075 0 0 0
6626 2 68.200004 250.033067579022 1.04689075 0 0 0
6627 2 78.43002165000101 238.220510310489 1.04689075 0 0 0
6628 2 76.72500450000001 241.173627479022 1.04689075 0 0 0
6629 2 75.0200044 244.126774179022 1.04689075 0 0 0
6630 2 73.315021350001 247.079950410489 1.04689075 0 0 0
6631 2 71.6100042 250.033067579022 1.04689075 0 0 0
6632 2 81.84002185000101 238.220510310489 1.04689075 0 0 0
6633 2 80.135021750001 241.173627479022 1.04689075 0 0 0
6634 2 78.43002165000101 244.126774179022 1.04689075 0 0 0
6635 2 76.72500450000001 247.079950410489 1.04689075 0 0 0
6636 2 75.0200044 250.033067579022 1.04689075 0 0 0
6637 1 68.200004 252.001871420978 1.04689075 0 0 0
6638 1 71.609987149999 252.001871420978 1.04689075 0 0 0
6639 1 69.90500410000001 254.954988589511 1.04689075 0 0 0
6640 1 68.200004 257.908135289511 1.04689075 0 0 0
6641 1 75.0200044 252.001871420978 1.04689075 0 0 0
6642 1 73.314987249999 254.954988589511 1.04689075 0 0 0
6643 1 71.609987149999 257.908135289511 1.04689075 0 0 0
6644 1 69.90500410000001 260.861281989511 1.04689075 0 0 0
6645 1 68.200004 263.814458220978 1.04689075 0 0 0
6646 2 69.905021150001 252.986214279022 1.04689075 0 0 0
6647 2 68.200004 255.939390510489 1.04689075 0 0 0
6648 2 73.315021350001 252.986214279022 1.04689075 0 0 0
6649 2 71.6100042 255.939390510489 1.04689075 0 0 0
6650 2 69.905021150001 258.89253721048897 1.04689075 0 0 0
6651 2 68.200004 261.845683910489 1.04689075 0 0 0
6652 1 83.544987849999 243.14240178951098 1.04689075 0 0 0
6653 1 81.83998774999901 246.095578020978 1.04689075 0 0 0
6654 1 80.134987649999 249.048695189511 1.04689075 0 0 0
6655 2 100.5950059 264.798801079022 1.04689075 0 0 0
6656 2 83.54500490000001 241.173627479022 1.04689075 0 0 0
6657 2 81.84002185000101 244.126774179022 1.04689075 0 0 0
6658 2 80.135021750001 247.079950410489 1.04689075 0 0 0
6659 2 78.43002165000101 250.033067579022 1.04689075 0 0 0
6660 2 83.54500490000001 247.079950410489 1.04689075 0 0 0
6661 2 81.84002185000101 250.033067579022 1.04689075 0 0 0
6662 1 78.4300046 252.001871420978 1.04689075 0 0 0
6663 1 76.724987449999 254.954988589511 1.04689075 0 0 0
6664 1 75.0200044 257.908135289511 1.04689075 0 0 0
6665 1 73.314987249999 260.861281989511 1.04689075 0 0 0
6666 1 71.609987149999 263.814458220978 1.04689075 0 0 0
6667 1 81.83998774999901 252.001871420978 1.04689075 0 0 0
6668 1 80.134987649999 254.954988589511 1.04689075 0 0 0
6669 1 78.4300046 257.908135289511 1.04689075 0 0 0
6670 1 76.724987449999 260.861281989511 1.04689075 0 0 0
6671 1 75.0200044 263.814458220978 1.04689075 0 0 0
6672 1 83.544987849999 254.954988589511 1.04689075 0 0 0
6673 1 81.83998774999901 257.908135289511 1.04689075 0 0 0
6674 1 80.134987649999 260.861281989511 1.04689075 0 0 0
6675 1 78.4300046 263.814458220978 1.04689075 0 0 0
6676 1 83.544987849999 260.861281989511 1.04689075 0 0 0
6677 1 81.83998774999901 263.814458220978 1.04689075 0 0 0
6678 2 76.72500450000001 252.986214279022 1.04689075 0 0 0
6679 2 75.0200044 255.939390510489 1.04689075 0 0 0
6680 2 73.315021350001 258.89253721048897 1.04689075 0 0 0
6681 2 71.6100042 261.845683910489 1.04689075 0 0 0
6682 2 69.905021150001 264.798801079022 1.04689075 0 0 0
6683 2 80.135021750001 252.986214279022 1.04689075 0 0 0
6684 2 78.43002165000101 255.939390510489 1.04689075 0 0 0
6685 2 76.72500450000001 258.89253721048897 1.04689075 0 0 0
6686 2 75.0200044 261.845683910489 1.04689075 0 0 0
6687 2 73.315021350001 264.798801079022 1.04689075 0 0 0
6688 2 97.18502275000101 264.798801079022 1.04689075 0 0 0
6689 2 81.84002185000101 255.939390510489 1.04689075 0 0 0
6690 2 80.135021750001 258.89253721048897 1.04689075 0 0 0
6691 2 78.43002165000101 261.845683910489 1.04689075 0 0 0
6692 2 76.72500450000001 264.798801079022 1.04689075 0 0 0
6693 2 83.54500490000001 258.89253721048897 1.04689075 0 0 0
6694 2 81.84002185000101 261.845683910489 1.04689075 0 0 0
6695 2 80.135021750001 264.798801079022 1.04689075 0 0 0
6696 2 83.54500490000001 264.798801079022 1.04689075 0 0 0
6697 1 86.95500510000001 237.236137920978 1.04689075 0 0 0
6698 1 85.25000500000002 240.189255089511 1.04689075 0 0 0
6699 1 90.36498824999902 237.236137920978 1.04689075 0 0 0
6700 1 88.65998814999901 240.189255089511 1.04689075 0 0 0
6701 1 86.95500510000001 243.14240178951098 1.04689075 0 0 0
6702 1 85.25000500000002 246.095578020978 1.04689075 0 0 0
6703 1 93.774988449999 237.236137920978 1.04689075 0 0 0
6704 1 92.07000540000001 240.189255089511 1.04689075 0 0 0
6705 1 90.36498824999902 243.14240178951098 1.04689075 0 0 0
6706 1 88.65998814999901 246.095578020978 1.04689075 0 0 0
6707 2 98.890022850001 261.845683910489 1.04689075 0 0 0
6708 1 97.18498864999901 237.236137920978 1.04689075 0 0 0
6709 1 95.4800056 240.189255089511 1.04689075 0 0 0
6710 1 93.774988449999 243.14240178951098 1.04689075 0 0 0
6711 1 92.07000540000001 246.095578020978 1.04689075 0 0 0
6712 1 90.36498824999902 249.048695189511 1.04689075 0 0 0
6713 1 100.594988849999 237.236137920978 1.04689075 0 0 0
6714 1 98.889988749999 240.189255089511 1.04689075 0 0 0
6715 1 97.18498864999901 243.14240178951098 1.04689075 0 0 0
6716 1 95.4800056 246.095578020978 1.04689075 0 0 0
6717 1 93.774988449999 249.048695189511 1.04689075 0 0 0
6718 2 85.25000500000002 238.220510310489 1.04689075 0 0 0
6719 2 88.6600052 238.220510310489 1.04689075 0 0 0
6720 2 86.95502215000101 241.173627479022 1.04689075 0 0 0
6721 2 85.25000500000002 244.126774179022 1.04689075 0 0 0
6722 2 92.07000540000001 238.220510310489 1.04689075 0 0 0
6723 2 90.365022350001 241.173627479022 1.04689075 0 0 0
6724 2 88.6600052 244.126774179022 1.04689075 0 0 0
6725 2 86.95502215000101 247.079950410489 1.04689075 0 0 0
6726 2 100.5950059 258.89253721048897 1.04689075 0 0 0
6727 2 95.480022650001 238.220510310489 1.04689075 0 0 0
6728 2 93.7750055 241.173627479022 1.04689075 0 0 0
6729 2 92.07000540000001 244.126774179022 1.04689075 0 0 0
6730 2 90.365022350001 247.079950410489 1.04689075 0 0 0
6731 2 88.6600052 250.033067579022 1.04689075 0 0 0
6732 2 98.890022850001 238.220510310489 1.04689075 0 0 0
6733 2 97.18502275000101 241.173627479022 1.04689075 0 0 0
6734 2 95.480022650001 244.126774179022 1.04689075 0 0 0
6735 2 93.7750055 247.079950410489 1.04689075 0 0 0
6736 2 92.07000540000001 250.033067579022 1.04689075 0 0 0
6737 2 93.7750055 264.798801079022 1.04689075 0 0 0
6738 1 88.65998814999901 252.001871420978 1.04689075 0 0 0
6739 1 86.95500510000001 254.954988589511 1.04689075 0 0 0
6740 1 85.25000500000002 257.908135289511 1.04689075 0 0 0
6741 1 92.07000540000001 252.001871420978 1.04689075 0 0 0
6742 1 90.36498824999902 254.954988589511 1.04689075 0 0 0
6743 1 88.65998814999901 257.908135289511 1.04689075 0 0 0
6744 1 86.95500510000001 260.861281989511 1.04689075 0 0 0
6745 1 85.25000500000002 263.814458220978 1.04689075 0 0 0
6746 2 95.480022650001 261.845683910489 1.04689075 0 0 0
6747 2 85.25000500000002 255.939390510489 1.04689075 0 0 0
6748 2 90.365022350001 252.986214279022 1.04689075 0 0 0
6749 2 88.6600052 255.939390510489 1.04689075 0 0 0
6750 2 86.95502215000101 258.89253721048897 1.04689075 0 0 0
6751 2 85.25000500000002 261.845683910489 1.04689075 0 0 0
6752 1 100.594988849999 243.14240178951098 1.04689075 0 0 0
6753 1 98.889988749999 246.095578020978 1.04689075 0 0 0
6754 1 97.18498864999901 249.048695189511 1.04689075 0 0 0
6755 1 100.594988849999 249.048695189511 1.04689075 0 0 0
6756 2 100.5950059 241.173627479022 1.04689075 0 0 0
6757 2 98.890022850001 244.126774179022 1.04689075 0 0 0
6758 2 97.18502275000101 247.079950410489 1.04689075 0 0 0
6759 2 95.480022650001 250.033067579022 1.04689075 0 0 0
6760 2 100.5950059 247.079950410489 1.04689075 0 0 0
6761 2 98.890022850001 250.033067579022 1.04689075 0 0 0
6762 1 95.4800056 252.001871420978 1.04689075 0 0 0
6763 1 93.774988449999 254.954988589511 1.04689075 0 0 0
6764 1 92.07000540000001 257.908135289511 1.04689075 0 0 0
6765 1 90.36498824999902 260.861281989511 1.04689075 0 0 0
6766 1 88.65998814999901 263.814458220978 1.04689075 0 0 0
6767 1 98.889988749999 252.001871420978 1.04689075 0 0 0
6768 1 97.18498864999901 254.954988589511 1.04689075 0 0 0
6769 1 95.4800056 257.908135289511 1.04689075 0 0 0
6770 1 93.774988449999 260.861281989511 1.04689075 0 0 0
6771 1 92.07000540000001 263.814458220978 1.04689075 0 0 0
6772 1 100.594988849999 254.954988589511 1.04689075 0 0 0
6773 1 98.889988749999 257.908135289511 1.04689075 0 0 0
6774 1 97.18498864999901 260.861281989511 1.04689075 0 0 0
6775 1 95.4800056 263.814458220978 1.04689075 0 0 0
6776 1 100.594988849999 260.861281989511 1.04689075 0 0 0
6777 1 98.889988749999 263.814458220978 1.04689075 0 0 0
6778 2 93.7750055 252.986214279022 1.04689075 0 0 0
6779 2 92.07000540000001 255.939390510489 1.04689075 0 0 0
6780 2 90.365022350001 258.89253721048897 1.04689075 0 0 0
6781 2 88.6600052 261.845683910489 1.04689075 0 0 0
6782 2 86.95502215000101 264.798801079022 1.04689075 0 0 0
6783 2 97.18502275000101 252.986214279022 1.04689075 0 0 0
6784 2 95.480022650001 255.939390510489 1.04689075 0 0 0
6785 2 93.7750055 258.89253721048897 1.04689075 0 0 0
6786 2 92.07000540000001 261.845683910489 1.04689075 0 0 0
6787 2 90.365022350001 264.798801079022 1.04689075 0 0 0
6788 2 100.5950059 252.986214279022 1.04689075 0 0 0
6789 2 98.890022850001 255.939390510489 1.04689075 0 0 0
6790 2 97.18502275000101 258.89253721048897 1.04689075 0 0 0
7373 1 69.90500410000001 266.767604920978 1.04689075 0 0 0
7374 1 68.200004 269.720722089511 1.04689075 0 0 0
7375 1 73.314987249999 266.767604920978 1.04689075 0 0 0
7376 1 71.609987149999 269.720722089511 1.04689075 0 0 0
7377 1 69.90500410000001 272.673868789511 1.04689075 0 0 0
7378 1 68.200004 275.627045020978 1.04689075 0 0 0
7379 1 76.724987449999 266.767604920978 1.04689075 0 0 0
7380 1 75.0200044 269.720722089511 1.04689075 0 0 0
7381 1 73.314987249999 272.673868789511 1.04689075 0 0 0
7382 1 71.609987149999 275.627045020978 1.04689075 0 0 0
7383 1 69.90500410000001 278.58016218951104 1.04689075 0 0 0
7384 1 80.134987649999 266.767604920978 1.04689075 0 0 0
7385 1 78.4300046 269.720722089511 1.04689075 0 0 0
7386 1 76.724987449999 272.673868789511 1.04689075 0 0 0
7387 1 75.0200044 275.627045020978 1.04689075 0 0 0
7388 1 73.314987249999 278.58016218951104 1.04689075 0 0 0
7389 1 83.544987849999 266.767604920978 1.04689075 0 0 0
7390 1 81.83998774999901 269.720722089511 1.04689075 0 0 0
7391 1 80.134987649999 272.673868789511 1.04689075 0 0 0
7392 1 78.4300046 275.627045020978 1.04689075 0 0 0
7393 1 76.724987449999 278.58016218951104 1.04689075 0 0 0
7394 2 68.200004 267.751977310489 1.04689075 0 0 0
7395 2 71.6100042 267.751977310489 1.04689075 0 0 0
7396 2 69.905021150001 270.705094479022 1.04689075 0 0 0
7397 2 68.200004 273.658241179022 1.04689075 0 0 0
7398 2 75.0200044 267.751977310489 1.04689075 0 0 0
7399 2 73.315021350001 270.705094479022 1.04689075 0 0 0
7400 2 71.6100042 273.658241179022 1.04689075 0 0 0
7401 2 69.905021150001 276.611417410489 1.04689075 0 0 0
7402 2 68.200004 279.564534579022 1.04689075 0 0 0
7403 2 78.43002165000101 267.751977310489 1.04689075 0 0 0
7404 2 76.72500450000001 270.705094479022 1.04689075 0 0 0
7405 2 75.0200044 273.658241179022 1.04689075 0 0 0
7406 2 73.315021350001 276.611417410489 1.04689075 0 0 0
7407 2 71.6100042 279.564534579022 1.04689075 0 0 0
7408 2 81.84002185000101 267.751977310489 1.04689075 0 0 0
7409 2 80.135021750001 270.705094479022 1.04689075 0 0 0
7410 2 78.43002165000101 273.658241179022 1.04689075 0 0 0
7411 2 76.72500450000001 276.611417410489 1.04689075 0 0 0
7412 2 75.0200044 279.564534579022 1.04689075 0 0 0
7413 1 68.200004 281.533338420978 1.04689075 0 0 0
7414 1 71.609987149999 281.533338420978 1.04689075 0 0 0
7415 1 69.90500410000001 284.486455589511 1.04689075 0 0 0
7416 1 68.200004 287.439602289511 1.04689075 0 0 0
7417 1 75.0200044 281.533338420978 1.04689075 0 0 0
7418 1 73.314987249999 284.486455589511 1.04689075 0 0 0
7419 1 71.609987149999 287.439602289511 1.04689075 0 0 0
7420 1 69.90500410000001 290.392748989511 1.04689075 0 0 0
7421 1 68.200004 293.345925220978 1.04689075 0 0 0
7422 2 69.905021150001 282.517681279022 1.04689075 0 0 0
7423 2 68.200004 285.470857510489 1.04689075 0 0 0
7424 2 73.315021350001 282.517681279022 1.04689075 0 0 0
7425 2 71.6100042 285.470857510489 1.04689075 0 0 0
7426 2 69.905021150001 288.424004210489 1.04689075 0 0 0
7427 2 68.200004 291.37715091048904 1.04689075 0 0 0
7428 1 83.544987849999 272.673868789511 1.04689075 0 0 0
7429 1 81.83998774999901 275.627045020978 1.04689075 0 0 0
7430 1 80.134987649999 278.58016218951104 1.04689075 0 0 0
7431 2 100.5950059 294.330268079022 1.04689075 0 0 0
7432 2 83.54500490000001 270.705094479022 1.04689075 0 0 0
7433 2 81.84002185000101 273.658241179022 1.04689075 0 0 0
7434 2 80.135021750001 276.611417410489 1.04689075 0 0 0
7435 2 78.43002165000101 279.564534579022 1.04689075 0 0 0
7436 2 83.54500490000001 276.611417410489 1.04689075 0 0 0
7437 2 81.84002185000101 279.564534579022 1.04689075 0 0 0
7438 1 78.4300046 281.533338420978 1.04689075 0 0 0
7439 1 76.724987449999 284.486455589511 1.04689075 0 0 0
7440 1 75.0200044 287.439602289511 1.04689075 0 0 0
7441 1 73.314987249999 290.392748989511 1.04689075 0 0 0
7442 1 71.609987149999 293.345925220978 1.04689075 0 0 0
7443 1 81.83998774999901 281.533338420978 1.04689075 0 0 0
7444 1 80.134987649999 284.486455589511 1.04689075 0 0 0
7445 1 78.4300046 287.439602289511 1.04689075 0 0 0
7446 1 76.724987449999 290.392748989511 1.04689075 0 0 0
7447 1 75.0200044 293.345925220978 1.04689075 0 0 0
7448 1 83.544987849999 284.486455589511 1.04689075 0 0 0
7449 1 81.83998774999901 287.439602289511 1.04689075 0 0 0
7450 1 80.134987649999 290.392748989511 1.04689075 0 0 0
7451 1 78.4300046 293.345925220978 1.04689075 0 0 0
7452 1 83.544987849999 290.392748989511 1.04689075 0 0 0
7453 1 81.83998774999901 293.345925220978 1.04689075 0 0 0
7454 2 76.72500450000001 282.517681279022 1.04689075 0 0 0
7455 2 75.0200044 285.470857510489 1.04689075 0 0 0
7456 2 73.315021350001 288.424004210489 1.04689075 0 0 0
7457 2 71.6100042 291.37715091048904 1.04689075 0 0 0
7458 2 69.905021150001 294.330268079022 1.04689075 0 0 0
7459 2 80.135021750001 282.517681279022 1.04689075 0 0 0
7460 2 78.43002165000101 285.470857510489 1.04689075 0 0 0
7461 2 76.72500450000001 288.424004210489 1.04689075 0 0 0
7462 2 75.0200044 291.37715091048904 1.04689075 0 0 0
7463 2 73.315021350001 294.330268079022 1.04689075 0 0 0
7464 2 97.18502275000101 294.330268079022 1.04689075 0 0 0
7465 2 81.84002185000101 285.470857510489 1.04689075 0 0 0
7466 2 80.135021750001 288.424004210489 1.04689075 0 0 0
7467 2 78.43002165000101 291.37715091048904 1.04689075 0 0 0
7468 2 76.72500450000001 294.330268079022 1.04689075 0 0 0
7469 2 83.54500490000001 288.424004210489 1.04689075 0 0 0
7470 2 81.84002185000101 291.37715091048904 1.04689075 0 0 0
7471 2 80.135021750001 294.330268079022 1.04689075 0 0 0
7472 2 83.54500490000001 294.330268079022 1.04689075 0 0 0
7473 1 86.95500510000001 266.767604920978 1.04689075 0 0 0
7474 1 85.25000500000002 269.720722089511 1.04689075 0 0 0
7475 1 90.36498824999902 266.767604920978 1.04689075 0 0 0
7476 1 88.65998814999901 269.720722089511 1.04689075 0 0 0
7477 1 86.95500510000001 272.673868789511 1.04689075 0 0 0
7478 1 85.25000500000002 275.627045020978 1.04689075 0 0 0
7479 1 93.774988449999 266.767604920978 1.04689075 0 0 0
7480 1 92.07000540000001 269.720722089511 1.04689075 0 0 0
7481 1 90.36498824999902 272.673868789511 1.04689075 0 0 0
7482 1 88.65998814999901 275.627045020978 1.04689075 0 0 0
7483 2 98.890022850001 291.37715091048904 1.04689075 0 0 0
7484 1 97.18498864999901 266.767604920978 1.04689075 0 0 0
7485 1 95.4800056 269.720722089511 1.04689075 0 0 0
7486 1 93.774988449999 272.673868789511 1.04689075 0 0 0
7487 1 92.07000540000001 275.627045020978 1.04689075 0 0 0
7488 1 90.36498824999902 278.58016218951104 1.04689075 0 0 0
7489 1 100.594988849999 266.767604920978 1.04689075 0 0 0
7490 1 98.889988749999 269.720722089511 1.04689075 0 0 0
7491 1 97.18498864999901 272.673868789511 1.04689075 0 0 0
7492 1 95.4800056 275.627045020978 1.04689075 0 0 0
7493 1 93.774988449999 278.58016218951104 1.04689075 0 0 0
7494 2 85.25000500000002 267.751977310489 1.04689075 0 0 0
7495 2 88.6600052 267.751977310489 1.04689075 0 0 0
7496 2 86.95502215000101 270.705094479022 1.04689075 0 0 0
7497 2 85.25000500000002 273.658241179022 1.04689075 0 0 0
7498 2 92.07000540000001 267.751977310489 1.04689075 0 0 0
7499 2 90.365022350001 270.705094479022 1.04689075 0 0 0
7500 2 88.6600052 273.658241179022 1.04689075 0 0 0
7501 2 86.95502215000101 276.611417410489 1.04689075 0 0 0
7502 2 100.5950059 288.424004210489 1.04689075 0 0 0
7503 2 95.480022650001 267.751977310489 1.04689075 0 0 0
7504 2 93.7750055 270.705094479022 1.04689075 0 0 0
7505 2 92.07000540000001 273.658241179022 1.04689075 0 0 0
7506 2 90.365022350001 276.611417410489 1.04689075 0 0 0
7507 2 88.6600052 279.564534579022 1.04689075 0 0 0
7508 2 98.890022850001 267.751977310489 1.04689075 0 0 0
7509 2 97.18502275000101 270.705094479022 1.04689075 0 0 0
7510 2 95.480022650001 273.658241179022 1.04689075 0 0 0
7511 2 93.7750055 276.611417410489 1.04689075 0 0 0
7512 2 92.07000540000001 279.564534579022 1.04689075 0 0 0
7513 2 93.7750055 294.330268079022 1.04689075 0 0 0
7514 1 88.65998814999901 281.533338420978 1.04689075 0 0 0
7515 1 86.95500510000001 284.486455589511 1.04689075 0 0 0
7516 1 85.25000500000002 287.439602289511 1.04689075 0 0 0
7517 1 92.07000540000001 281.533338420978 1.04689075 0 0 0
7518 1 90.36498824999902 284.486455589511 1.04689075 0 0 0
7519 1 88.65998814999901 287.439602289511 1.04689075 0 0 0
7520 1 86.95500510000001 290.392748989511 1.04689075 0 0 0
7521 1 85.25000500000002 293.345925220978 1.04689075 0 0 0
7522 2 95.480022650001 291.37715091048904 1.04689075 0 0 0
7523 2 85.25000500000002 285.470857510489 1.04689075 0 0 0
7524 2 90.365022350001 282.517681279022 1.04689075 0 0 0
7525 2 88.6600052 285.470857510489 1.04689075 0 0 0
7526 2 86.95502215000101 288.424004210489 1.04689075 0 0 0
7527 2 85.25000500000002 291.37715091048904 1.04689075 0 0 0
7528 1 100.594988849999 272.673868789511 1.04689075 0 0 0
7529 1 98.889988749999 275.627045020978 1.04689075 0 0 0
7530 1 97.18498864999901 278.58016218951104 1.04689075 0 0 0
7531 1 100.594988849999 278.58016218951104 1.04689075 0 0 0
7532 2 100.5950059 270.705094479022 1.04689075 0 0 0
7533 2 98.890022850001 273.658241179022 1.04689075 0 0 0
7534 2 97.18502275000101 276.611417410489 1.04689075 0 0 0
7535 2 95.480022650001 279.564534579022 1.04689075 0 0 0
7536 2 100.5950059 276.611417410489 1.04689075 0 0 0
7537 2 98.890022850001 279.564534579022 1.04689075 0 0 0
7538 1 95.4800056 281.533338420978 1.04689075 0 0 0
7539 1 93.774988449999 284.486455589511 1.04689075 0 0 0
7540 1 92.07000540000001 287.439602289511 1.04689075 0 0 0
7541 1 90.36498824999902 290.392748989511 1.04689075 0 0 0
7542 1 88.65998814999901 293.345925220978 1.04689075 0 0 0
7543 1 98.889988749999 281.533338420978 1.04689075 0 0 0
7544 1 97.18498864999901 284.486455589511 1.04689075 0 0 0
7545 1 95.4800056 287.439602289511 1.04689075 0 0 0
7546 1 93.774988449999 290.392748989511 1.04689075 0 0 0
7547 1 92.07000540000001 293.345925220978 1.04689075 0 0 0
7548 1 100.594988849999 284.486455589511 1.04689075 0 0 0
7549 1 98.889988749999 287.439602289511 1.04689075 0 0 0
7550 1 97.18498864999901 290.392748989511 1.04689075 0 0 0
7551 1 95.4800056 293.345925220978 1.04689075 0 0 0
7552 1 100.594988849999 290.392748989511 1.04689075 0 0 0
7553 1 98.889988749999 293.345925220978 1.04689075 0 0 0
7554 2 93.7750055 282.517681279022 1.04689075 0 0 0
7555 2 92.07000540000001 285.470857510489 1.04689075 0 0 0
7556 2 90.365022350001 288.424004210489 1.04689075 0 0 0
7557 2 88.6600052 291.37715091048904 1.04689075 0 0 0
7558 2 86.95502215000101 294.330268079022 1.04689075 0 0 0
7559 2 97.18502275000101 282.517681279022 1.04689075 0 0 0
7560 2 95.480022650001 285.470857510489 1.04689075 0 0 0
7561 2 93.7750055 288.424004210489 1.04689075 0 0 0
7562 2 92.07000540000001 291.37715091048904 1.04689075 0 0 0
7563 2 90.365022350001 294.330268079022 1.04689075 0 0 0
7564 2 100.5950059 282.517681279022 1.04689075 0 0 0
7565 2 98.890022850001 285.470857510489 1.04689075 0 0 0
7566 2 97.18502275000101 288.424004210489 1.04689075 0 0 0
8149 1 69.90500410000001 296.29907192097795 1.04689075 0 0 0
8150 1 68.200004 299.252189089511 1.04689075 0 0 0
8151 1 73.314987249999 296.29907192097795 1.04689075 0 0 0
8152 1 71.609987149999 299.252189089511 1.04689075 0 0 0
8153 1 69.90500410000001 302.20533578951097 1.04689075 0 0 0
8154 1 68.200004 305.158512020978 1.04689075 0 0 0
8155 1 76.724987449999 296.29907192097795 1.04689075 0 0 0
8156 1 75.0200044 299.252189089511 1.04689075 0 0 0
8157 1 73.314987249999 302.20533578951097 1.04689075 0 0 0
8158 1 71.609987149999 305.158512020978 1.04689075 0 0 0
8159 1 69.90500410000001 308.11162918951095 1.04689075 0 0 0
8160 1 80.134987649999 296.29907192097795 1.04689075 0 0 0
8161 1 78.4300046 299.252189089511 1.04689075 0 0 0
8162 1 76.724987449999 302.20533578951097 1.04689075 0 0 0
8163 1 75.0200044 305.158512020978 1.04689075 0 0 0
8164 1 73.314987249999 308.11162918951095 1.04689075 0 0 0
8165 1 83.544987849999 296.29907192097795 1.04689075 0 0 0
8166 1 81.83998774999901 299.252189089511 1.04689075 0 0 0
8167 1 80.134987649999 302.20533578951097 1.04689075 0 0 0
8168 1 78.4300046 305.158512020978 1.04689075 0 0 0
8169 1 76.724987449999 308.11162918951095 1.04689075 0 0 0
8170 2 68.200004 297.28344431048896 1.04689075 0 0 0
8171 2 71.6100042 297.28344431048896 1.04689075 0 0 0
8172 2 69.905021150001 300.236561479022 1.04689075 0 0 0
8173 2 68.200004 303.189708179022 1.04689075 0 0 0
8174 2 75.0200044 297.28344431048896 1.04689075 0 0 0
8175 2 73.315021350001 300.236561479022 1.04689075 0 0 0
8176 2 71.6100042 303.189708179022 1.04689075 0 0 0
8177 2 69.905021150001 306.142884410489 1.04689075 0 0 0
8178 2 68.200004 309.09600157902196 1.04689075 0 0 0
8179 2 78.43002165000101 297.28344431048896 1.04689075 0 0 0
8180 2 76.72500450000001 300.236561479022 1.04689075 0 0 0
8181 2 75.0200044 303.189708179022 1.04689075 0 0 0
8182 2 73.315021350001 306.142884410489 1.04689075 0 0 0
8183 2 71.6100042 309.09600157902196 1.04689075 0 0 0
8184 2 81.84002185000101 297.28344431048896 1.04689075 0 0 0
8185 2 80.135021750001 300.236561479022 1.04689075 0 0 0
8186 2 78.43002165000101 303.189708179022 1.04689075 0 0 0
8187 2 76.72500450000001 306.142884410489 1.04689075 0 0 0
8188 2 75.0200044 309.09600157902196 1.04689075 0 0 0
8189 1 68.200004 311.06480542097796 1.04689075 0 0 0
8190 1 71.609987149999 311.06480542097796 1.04689075 0 0 0
8191 1 69.90500410000001 314.017922589511 1.04689075 0 0 0
8192 1 68.200004 316.971069289511 1.04689075 0 0 0
8193 1 75.0200044 311.06480542097796 1.04689075 0 0 0
8194 1 73.314987249999 314.017922589511 1.04689075 0 0 0
8195 1 71.609987149999 316.971069289511 1.04689075 0 0 0
8196 1 69.90500410000001 319.92421598951097 1.04689075 0 0 0
8197 1 68.200004 322.877392220978 1.04689075 0 0 0
8198 2 69.905021150001 312.049148279022 1.04689075 0 0 0
8199 2 68.200004 315.00232451048896 1.04689075 0 0 0
8200 2 73.315021350001 312.049148279022 1.04689075 0 0 0
8201 2 71.6100042 315.00232451048896 1.04689075 0 0 0
8202 2 69.905021150001 317.95547121048895 1.04689075 0 0 0
8203 2 68.200004 320.908617910489 1.04689075 0 0 0
8204 1 83.544987849999 302.20533578951097 1.04689075 0 0 0
8205 1 81.83998774999901 305.158512020978 1.04689075 0 0 0
8206 1 80.134987649999 308.11162918951095 1.04689075 0 0 0
8207 2 100.5950059 323.86173507902197 1.04689075 0 0 0
8208 2 83.54500490000001 300.236561479022 1.04689075 0 0 0
8209 2 81.84002185000101 303.189708179022 1.04689075 0 0 0
8210 2 80.135021750001 306.142884410489 1.04689075 0 0 0
8211 2 78.43002165000101 309.09600157902196 1.04689075 0 0 0
8212 2 83.54500490000001 306.142884410489 1.04689075 0 0 0
8213 2 81.84002185000101 309.09600157902196 1.04689075 0 0 0
8214 1 78.4300046 311.06480542097796 1.04689075 0 0 0
8215 1 76.724987449999 314.017922589511 1.04689075 0 0 0
8216 1 75.0200044 316.971069289511 1.04689075 0 0 0
8217 1 73.314987249999 319.92421598951097 1.04689075 0 0 0
8218 1 71.609987149999 322.877392220978 1.04689075 0 0 0
8219 1 81.83998774999901 311.06480542097796 1.04689075 0 0 0
8220 1 80.134987649999 314.017922589511 1.04689075 0 0 0
8221 1 78.4300046 316.971069289511 1.04689075 0 0 0
8222 1 76.724987449999 319.92421598951097 1.04689075 0 0 0
8223 1 75.0200044 322.877392220978 1.04689075 0 0 0
8224 1 83.544987849999 314.017922589511 1.04689075 0 0 0
8225 1 81.83998774999901 316.971069289511 1.04689075 0 0 0
8226 1 80.134987649999 319.92421598951097 1.04689075 0 0 0
8227 1 78.4300046 322.877392220978 1.04689075 0 0 0
8228 1 83.544987849999 319.92421598951097 1.04689075 0 0 0
8229 1 81.83998774999901 322.877392220978 1.04689075 0 0 0
8230 2 76.72500450000001 312.049148279022 1.04689075 0 0 0
8231 2 75.0200044 315.00232451048896 1.04689075 0 0 0
8232 2 73.315021350001 317.95547121048895 1.04689075 0 0 0
8233 2 71.6100042 320.908617910489 1.04689075 0 0 0
8234 2 69.905021150001 323.86173507902197 1.04689075 0 0 0
8235 2 80.135021750001 312.049148279022 1.04689075 0 0 0
8236 2 78.43002165000101 315.00232451048896 1.04689075 0 0 0
8237 2 76.72500450000001 317.95547121048895 1.04689075 0 0 0
8238 2 75.0200044 320.908617910489 1.04689075 0 0 0
8239 2 73.315021350001 323.86173507902197 1.04689075 0 0 0
8240 2 97.18502275000101 323.86173507902197 1.04689075 0 0 0
8241 2 81.84002185000101 315.00232451048896 1.04689075 0 0 0
8242 2 80.135021750001 317.95547121048895 1.04689075 0 0 0
8243 2 78.43002165000101 320.908617910489 1.04689075 0 0 0
8244 2 76.72500450000001 323.86173507902197 1.04689075 0 0 0
8245 2 83.54500490000001 317.95547121048895 1.04689075 0 0 0
8246 2 81.84002185000101 320.908617910489 1.04689075 0 0 0
8247 2 80.135021750001 323.86173507902197 1.04689075 0 0 0
8248 2 83.54500490000001 323.86173507902197 1.04689075 0 0 0
8249 1 86.95500510000001 296.29907192097795 1.04689075 0 0 0
8250 1 85.25000500000002 299.252189089511 1.04689075 0 0 0
8251 1 90.36498824999902 296.29907192097795 1.04689075 0 0 0
8252 1 88.65998814999901 299.252189089511 1.04689075 0 0 0
8253 1 86.95500510000001 302.20533578951097 1.04689075 0 0 0
8254 1 85.25000500000002 305.158512020978 1.04689075 0 0 0
8255 1 93.774988449999 296.29907192097795 1.04689075 0 0 0
8256 1 92.07000540000001 299.252189089511 1.04689075 0 0 0
8257 1 90.36498824999902 302.20533578951097 1.04689075 0 0 0
8258 1 88.65998814999901 305.158512020978 1.04689075 0 0 0
8259 2 98.890022850001 320.908617910489 1.04689075 0 0 0
8260 1 97.18498864999901 296.29907192097795 1.04689075 0 0 0
8261 1 95.4800056 299.252189089511 1.04689075 0 0 0
8262 1 93.774988449999 302.20533578951097 1.04689075 0 0 0
8263 1 92.07000540000001 305.158512020978 1.04689075 0 0 0
8264 1 90.36498824999902 308.11162918951095 1.04689075 0 0 0
8265 1 100.594988849999 296.29907192097795 1.04689075 0 0 0
8266 1 98.889988749999 299.252189089511 1.04689075 0 0 0
8267 1 97.18498864999901 302.20533578951097 1.04689075 0 0 0
8268 1 95.4800056 305.158512020978 1.04689075 0 0 0
8269 1 93.774988449999 308.11162918951095 1.04689075 0 0 0
8270 2 85.25000500000002 297.28344431048896 1.04689075 0 0 0
8271 2 88.6600052 297.28344431048896 1.04689075 0 0 0
8272 2 86.95502215000101 300.236561479022 1.04689075 0 0 0
8273 2 85.25000500000002 303.189708179022 1.04689075 0 0 0
8274 2 92.07000540000001 297.28344431048896 1.04689075 0 0 0
8275 2 90.365022350001 300.236561479022 1.04689075 0 0 0
8276 2 88.6600052 303.189708179022 1.04689075 0 0 0
8277 2 86.95502215000101 306.142884410489 1.04689075 0 0 0
8278 2 100.5950059 317.95547121048895 1.04689075 0 0 0
8279 2 95.480022650001 297.28344431048896 1.04689075 0 0 0
8280 2 93.7750055 300.236561479022 1.04689075 0 0 0
8281 2 92.07000540000001 303.189708179022 1.04689075 0 0 0
8282 2 90.365022350001 306.142884410489 1.04689075 0 0 0
8283 2 88.6600052 309.09600157902196 1.04689075 0 0 0
8284 2 98.890022850001 297.28344431048896 1.04689075 0 0 0
8285 2 97.18502275000101 300.236561479022 1.04689075 0 0 0
8286 2 95.480022650001 303.189708179022 1.04689075 0 0 0
8287 2 93.7750055 306.142884410489 1.04689075 0 0 0
8288 2 92.07000540000001 309.09600157902196 1.04689075 0 0 0
8289 2 93.7750055 323.86173507902197 1.04689075 0 0 0
8290 1 88.65998814999901 311.06480542097796 1.04689075 0 0 0
8291 1 86.95500510000001 314.017922589511 1.04689075 0 0 0
8292 1 85.25000500000002 316.971069289511 1.04689075 0 0 0
8293 1 92.07000540000001 311.06480542097796 1.04689075 0 0 0
8294 1 90.36498824999902 314.017922589511 1.04689075 0 0 0
8295 1 88.65998814999901 316.971069289511 1.04689075 0 0 0
8296 1 86.95500510000001 319.92421598951097 1.04689075 0 0 0
8297 1 85.25000500000002 322.877392220978 1.04689075 0 0 0
8298 2 95.480022650001 320.908617910489 1.04689075 0 0 0
8299 2 85.25000500000002 315.00232451048896 1.04689075 0 0 0
8300 2 90.365022350001 312.049148279022 1.04689075 0 0 0
8301 2 88.6600052 315.00232451048896 1.04689075 0 0 0
8302 2 86.95502215000101 317.95547121048895 1.04689075 0 0 0
8303 2 85.25000500000002 320.908617910489 1.04689075 0 0 0
8304 1 100.594988849999 302.20533578951097 1.04689075 0 0 0
8305 1 98.889988749999 305.158512020978 1.04689075 0 0 0
8306 1 97.18498864999901 308.11162918951095 1.04689075 0 0 0
8307 1 100.594988849999 308.11162918951095 1.04689075 0 0 0
8308 2 100.5950059 300.236561479022 1.04689075 0 0 0
8309 2 98.890022850001 303.189708179022 1.04689075 0 0 0
8310 2 97.18502275000101 306.142884410489 1.04689075 0 0 0
8311 2 95.480022650001 309.09600157902196 1.04689075 0 0 0
8312 2 100.5950059 306.142884410489 1.04689075 0 0 0
8313 2 98.890022850001 309.09600157902196 1.04689075 0 0 0
8314 1 95.4800056 311.06480542097796 1.04689075 0 0 0
8315 1 93.774988449999 314.017922589511 1.04689075 0 0 0
8316 1 92.07000540000001 316.971069289511 1.04689075 0 0 0
8317 1 90.36498824999902 319.92421598951097 1.04689075 0 0 0
8318 1 88.65998814999901 322.877392220978 1.04689075 0 0 0
8319 1 98.889988749999 311.06480542097796 1.04689075 0 0 0
8320 1 97.18498864999901 314.017922589511 1.04689075 0 0 0
8321 1 95.4800056 316.971069289511 1.04689075 0 0 0
8322 1 93.774988449999 319.92421598951097 1.04689075 0 0 0
8323 1 92.07000540000001 322.877392220978 1.04689075 0 0 0
8324 1 100.594988849999 314.017922589511 1.04689075 0 0 0
8325 1 98.889988749999 316.971069289511 1.04689075 0 0 0
8326 1 97.18498864999901 319.92421598951097 1.04689075 0 0 0
8327 1 95.4800056 322.877392220978 1.04689075 0 0 0
8328 1 100.594988849999 319.92421598951097 1.04689075 0 0 0
8329 1 98.889988749999 322.877392220978 1.04689075 0 0 0
8330 2 93.7750055 312.049148279022 1.04689075 0 0 0
8331 2 92.07000540000001 315.00232451048896 1.04689075 0 0 0
8332 2 90.365022350001 317.95547121048895 1.04689075 0 0 0
8333 2 88.6600052 320.908617910489 1.04689075 0 0 0
8334 2 86.95502215000101 323.86173507902197 1.04689075 0 0 0
8335 2 97.18502275000101 312.049148279022 1.04689075 0 0 0
8336 2 95.480022650001 315.00232451048896 1.04689075 0 0 0
8337 2 93.7750055 317.95547121048895 1.04689075 0 0 0
8338 2 92.07000540000001 320.908617910489 1.04689075 0 0 0
8339 2 90.365022350001 323.86173507902197 1.04689075 0 0 0
8340 2 100.5950059 312.049148279022 1.04689075 0 0 0
8341 2 98.890022850001 315.00232451048896 1.04689075 0 0 0
8342 2 97.18502275000101 317.95547121048895 1.04689075 0 0 0
583 1 104.00500610000002 0.984401920978 1.04689075 0 0 0
584 1 102.30000600000001 3.937519089511 1.04689075 0 0 0
585 1 107.41498924999901 0.984401920978 1.04689075 0 0 0
586 1 105.709989149999 3.937519089511 1.04689075 0 0 0
587 1 104.00500610000002 6.890665789511 1.04689075 0 0 0
588 1 102.30000600000001 9.843842020978 1.04689075 0 0 0
589 1 110.82498944999901 0.984401920978 1.04689075 0 0 0
590 1 109.12000640000001 3.937519089511 1.04689075 0 0 0
591 1 107.41498924999901 6.890665789511 1.04689075 0 0 0
592 1 105.709989149999 9.843842020978 1.04689075 0 0 0
593 1 104.00500610000002 12.796959189511 1.04689075 0 0 0
594 1 114.23498964999901 0.984401920978 1.04689075 0 0 0
595 1 112.53000660000001 3.937519089511 1.04689075 0 0 0
596 1 110.82498944999901 6.890665789511 1.04689075 0 0 0
597 1 109.12000640000001 9.843842020978 1.04689075 0 0 0
598 1 107.41498924999901 12.796959189511 1.04689075 0 0 0
599 1 117.644989849999 0.984401920978 1.04689075 0 0 0
600 1 115.93998974999901 3.937519089511 1.04689075 0 0 0
601 1 114.23498964999901 6.890665789511 1.04689075 0 0 0
602 1 112.53000660000001 9.843842020978 1.04689075 0 0 0
603 1 110.82498944999901 12.796959189511 1.04689075 0 0 0
604 2 102.30000600000001 1.968774310489 1.04689075 0 0 0
605 2 105.71000620000001 1.968774310489 1.04689075 0 0 0
606 2 104.00502315000101 4.921891479022 1.04689075 0 0 0
607 2 102.30000600000001 7.875038179022 1.04689075 0 0 0
608 2 109.12000640000001 1.968774310489 1.04689075 0 0 0
609 2 107.41502335000101 4.921891479022 1.04689075 0 0 0
610 2 105.71000620000001 7.875038179022 1.04689075 0 0 0
611 2 104.00502315000101 10.828214410489 1.04689075 0 0 0
612 2 102.30000600000001 13.781331579022 1.04689075 0 0 0
613 2 112.53002365000101 1.968774310489 1.04689075 0 0 0
614 2 110.82500650000001 4.921891479022 1.04689075 0 0 0
615 2 109.12000640000001 7.875038179022 1.04689075 0 0 0
616 2 107.41502335000101 10.828214410489 1.04689075 0 0 0
617 2 105.71000620000001 13.781331579022 1.04689075 0 0 0
618 2 115.94002385000101 1.968774310489 1.04689075 0 0 0
619 2 114.235023750001 4.921891479022 1.04689075 0 0 0
620 2 112.53002365000101 7.875038179022 1.04689075 0 0 0
621 2 110.82500650000001 10.828214410489 1.04689075 0 0 0
622 2 109.12000640000001 13.781331579022 1.04689075 0 0 0
623 1 102.30000600000001 15.750135420978 1.04689075 0 0 0
624 1 105.709989149999 15.750135420978 1.04689075 0 0 0
625 1 104.00500610000002 18.703252589511 1.04689075 0 0 0
626 1 102.30000600000001 21.656399289511 1.04689075 0 0 0
627 1 109.12000640000001 15.750135420978 1.04689075 0 0 0
628 1 107.41498924999901 18.703252589511 1.04689075 0 0 0
629 1 105.709989149999 21.656399289511 1.04689075 0 0 0
630 1 104.00500610000002 24.609545989511 1.04689075 0 0 0
631 1 102.30000600000001 27.562722220978 1.04689075 0 0 0
632 2 104.00502315000101 16.734478279022 1.04689075 0 0 0
633 2 102.30000600000001 19.687654510489 1.04689075 0 0 0
634 2 107.41502335000101 16.734478279022 1.04689075 0 0 0
635 2 105.71000620000001 19.687654510489 1.04689075 0 0 0
636 2 104.00502315000101 22.640801210489 1.04689075 0 0 0
637 2 102.30000600000001 25.593947910489 1.04689075 0 0 0
638 1 117.644989849999 6.890665789511 1.04689075 0 0 0
639 1 115.93998974999901 9.843842020978 1.04689075 0 0 0
640 1 114.23498964999901 12.796959189511 1.04689075 0 0 0
641 2 134.6950079 28.547065079022 1.04689075 0 0 0
642 2 117.64500690000001 4.921891479022 1.04689075 0 0 0
643 2 115.94002385000101 7.875038179022 1.04689075 0 0 0
644 2 114.235023750001 10.828214410489 1.04689075 0 0 0
645 2 112.53002365000101 13.781331579022 1.04689075 0 0 0
646 2 117.64500690000001 10.828214410489 1.04689075 0 0 0
647 2 115.94002385000101 13.781331579022 1.04689075 0 0 0
648 1 112.53000660000001 15.750135420978 1.04689075 0 0 0
649 1 110.82498944999901 18.703252589511 1.04689075 0 0 0
650 1 109.12000640000001 21.656399289511 1.04689075 0 0 0
651 1 107.41498924999901 24.609545989511 1.04689075 0 0 0
652 1 105.709989149999 27.562722220978 1.04689075 0 0 0
653 1 115.93998974999901 15.750135420978 1.04689075 0 0 0
654 1 114.23498964999901 18.703252589511 1.04689075 0 0 0
655 1 112.53000660000001 21.656399289511 1.04689075 0 0 0
656 1 110.82498944999901 24.609545989511 1.04689075 0 0 0
657 1 109.12000640000001 27.562722220978 1.04689075 0 0 0
658 1 117.644989849999 18.703252589511 1.04689075 0 0 0
659 1 115.93998974999901 21.656399289511 1.04689075 0 0 0
660 1 114.23498964999901 24.609545989511 1.04689075 0 0 0
661 1 112.53000660000001 27.562722220978 1.04689075 0 0 0
662 1 117.644989849999 24.609545989511 1.04689075 0 0 0
663 1 115.93998974999901 27.562722220978 1.04689075 0 0 0
664 2 110.82500650000001 16.734478279022 1.04689075 0 0 0
665 2 109.12000640000001 19.687654510489 1.04689075 0 0 0
666 2 107.41502335000101 22.640801210489 1.04689075 0 0 0
667 2 105.71000620000001 25.593947910489 1.04689075 0 0 0
668 2 104.00502315000101 28.547065079022 1.04689075 0 0 0
669 2 114.235023750001 16.734478279022 1.04689075 0 0 0
670 2 112.53002365000101 19.687654510489 1.04689075 0 0 0
671 2 110.82500650000001 22.640801210489 1.04689075 0 0 0
672 2 109.12000640000001 25.593947910489 1.04689075 0 0 0
673 2 107.41502335000101 28.547065079022 1.04689075 0 0 0
674 2 131.285024750001 28.547065079022 1.04689075 0 0 0
675 2 115.94002385000101 19.687654510489 1.04689075 0 0 0
676 2 114.235023750001 22.640801210489 1.04689075 0 0 0
677 2 112.53002365000101 25.593947910489 1.04689075 0 0 0
678 2 110.82500650000001 28.547065079022 1.04689075 0 0 0
679 2 117.64500690000001 22.640801210489 1.04689075 0 0 0
680 2 115.94002385000101 25.593947910489 1.04689075 0 0 0
681 2 114.235023750001 28.547065079022 1.04689075 0 0 0
682 2 117.64500690000001 28.547065079022 1.04689075 0 0 0
683 1 121.05500710000001 0.984401920978 1.04689075 0 0 0
684 1 119.350007 3.937519089511 1.04689075 0 0 0
685 1 124.464990249999 0.984401920978 1.04689075 0 0 0
686 1 122.75999014999901 3.937519089511 1.04689075 0 0 0
687 1 121.05500710000001 6.890665789511 1.04689075 0 0 0
688 1 119.350007 9.843842020978 1.04689075 0 0 0
689 1 127.87499044999902 0.984401920978 1.04689075 0 0 0
690 1 126.1700074 3.937519089511 1.04689075 0 0 0
691 1 124.464990249999 6.890665789511 1.04689075 0 0 0
692 1 122.75999014999901 9.843842020978 1.04689075 0 0 0
693 2 132.99002485000102 25.593947910489 1.04689075 0 0 0
694 1 131.284990649999 0.984401920978 1.04689075 0 0 0
695 1 129.58000760000002 3.937519089511 1.04689075 0 0 0
696 1 127.87499044999902 6.890665789511 1.04689075 0 0 0
697 1 126.1700074 9.843842020978 1.04689075 0 0 0
698 1 124.464990249999 12.796959189511 1.04689075 0 0 0
699 1 134.69499084999902 0.984401920978 1.04689075 0 0 0
700 1 132.989990749999 3.937519089511 1.04689075 0 0 0
701 1 131.284990649999 6.890665789511 1.04689075 0 0 0
702 1 129.58000760000002 9.843842020978 1.04689075 0 0 0
703 1 127.87499044999902 12.796959189511 1.04689075 0 0 0
704 2 119.350007 1.968774310489 1.04689075 0 0 0
705 2 122.76000720000002 1.968774310489 1.04689075 0 0 0
706 2 121.055024150001 4.921891479022 1.04689075 0 0 0
707 2 119.350007 7.875038179022 1.04689075 0 0 0
708 2 126.1700074 1.968774310489 1.04689075 0 0 0
709 2 124.46502435000102 4.921891479022 1.04689075 0 0 0
710 2 122.76000720000002 7.875038179022 1.04689075 0 0 0
711 2 121.055024150001 10.828214410489 1.04689075 0 0 0
712 2 134.6950079 22.640801210489 1.04689075 0 0 0
713 2 129.580024650001 1.968774310489 1.04689075 0 0 0
714 2 127.87500750000001 4.921891479022 1.04689075 0 0 0
715 2 126.1700074 7.875038179022 1.04689075 0 0 0
716 2 124.46502435000102 10.828214410489 1.04689075 0 0 0
717 2 122.76000720000002 13.781331579022 1.04689075 0 0 0
718 2 132.99002485000102 1.968774310489 1.04689075 0 0 0
719 2 131.285024750001 4.921891479022 1.04689075 0 0 0
720 2 129.580024650001 7.875038179022 1.04689075 0 0 0
721 2 127.87500750000001 10.828214410489 1.04689075 0 0 0
722 2 126.1700074 13.781331579022 1.04689075 0 0 0
723 2 127.87500750000001 28.547065079022 1.04689075 0 0 0
724 1 122.75999014999901 15.750135420978 1.04689075 0 0 0
725 1 121.05500710000001 18.703252589511 1.04689075 0 0 0
726 1 119.350007 21.656399289511 1.04689075 0 0 0
727 1 126.1700074 15.750135420978 1.04689075 0 0 0
728 1 124.464990249999 18.703252589511 1.04689075 0 0 0
729 1 122.75999014999901 21.656399289511 1.04689075 0 0 0
730 1 121.05500710000001 24.609545989511 1.04689075 0 0 0
731 1 119.350007 27.562722220978 1.04689075 0 0 0
732 2 129.580024650001 25.593947910489 1.04689075 0 0 0
733 2 119.350007 19.687654510489 1.04689075 0 0 0
734 2 124.46502435000102 16.734478279022 1.04689075 0 0 0
735 2 122.76000720000002 19.687654510489 1.04689075 0 0 0
736 2 121.055024150001 22.640801210489 1.04689075 0 0 0
737 2 119.350007 25.593947910489 1.04689075 0 0 0
738 1 134.69499084999902 6.890665789511 1.04689075 0 0 0
739 1 132.989990749999 9.843842020978 1.04689075 0 0 0
740 1 131.284990649999 12.796959189511 1.04689075 0 0 0
741 1 134.69499084999902 12.796959189511 1.04689075 0 0 0
742 2 134.6950079 4.921891479022 1.04689075 0 0 0
743 2 132.99002485000102 7.875038179022 1.04689075 0 0 0
744 2 131.285024750001 10.828214410489 1.04689075 0 0 0
745 2 129.580024650001 13.781331579022 1.04689075 0 0 0
746 2 134.6950079 10.828214410489 1.04689075 0 0 0
747 2 132.99002485000102 13.781331579022 1.04689075 0 0 0
748 1 129.58000760000002 15.750135420978 1.04689075 0 0 0
749 1 127.87499044999902 18.703252589511 1.04689075 0 0 0
750 1 126.1700074 21.656399289511 1.04689075 0 0 0
751 1 124.464990249999 24.609545989511 1.04689075 0 0 0
752 1 122.75999014999901 27.562722220978 1.04689075 0 0 0
753 1 132.989990749999 15.750135420978 1.04689075 0 0 0
754 1 131.284990649999 18.703252589511 1.04689075 0 0 0
755 1 129.58000760000002 21.656399289511 1.04689075 0 0 0
756 1 127.87499044999902 24.609545989511 1.04689075 0 0 0
757 1 126.1700074 27.562722220978 1.04689075 0 0 0
758 1 134.69499084999902 18.703252589511 1.04689075 0 0 0
759 1 132.989990749999 21.656399289511 1.04689075 0 0 0
760 1 131.284990649999 24.609545989511 1.04689075 0 0 0
761 1 129.58000760000002 27.562722220978 1.04689075 0 0 0
762 1 134.69499084999902 24.609545989511 1.04689075 0 0 0
763 1 132.989990749999 27.562722220978 1.04689075 0 0 0
764 2 127.87500750000001 16.734478279022 1.04689075 0 0 0
765 2 126.1700074 19.687654510489 1.04689075 0 0 0
766 2 124.46502435000102 22.640801210489 1.04689075 0 0 0
767 2 122.76000720000002 25.593947910489 1.04689075 0 0 0
768 2 121.055024150001 28.547065079022 1.04689075 0 0 0
769 2 131.285024750001 16.734478279022 1.04689075 0 0 0
770 2 129.580024650001 19.687654510489 1.04689075 0 0 0
771 2 127.87500750000001 22.640801210489 1.04689075 0 0 0
772 2 126.1700074 25.593947910489 1.04689075 0 0 0
773 2 124.46502435000102 28.547065079022 1.04689075 0 0 0
774 2 134.6950079 16.734478279022 1.04689075 0 0 0
775 2 132.99002485000102 19.687654510489 1.04689075 0 0 0
776 2 131.285024750001 22.640801210489 1.04689075 0 0 0
1359 1 104.00500610000002 30.515868920978 1.04689075 0 0 0
1360 1 102.30000600000001 33.468986089511 1.04689075 0 0 0
1361 1 107.41498924999901 30.515868920978 1.04689075 0 0 0
1362 1 105.709989149999 33.468986089511 1.04689075 0 0 0
1363 1 104.00500610000002 36.422132789511 1.04689075 0 0 0
1364 1 102.30000600000001 39.375309020978 1.04689075 0 0 0
1365 1 110.82498944999901 30.515868920978 1.04689075 0 0 0
1366 1 109.12000640000001 33.468986089511 1.04689075 0 0 0
1367 1 107.41498924999901 36.422132789511 1.04689075 0 0 0
1368 1 105.709989149999 39.375309020978 1.04689075 0 0 0
1369 1 104.00500610000002 42.328426189511 1.04689075 0 0 0
1370 1 114.23498964999901 30.515868920978 1.04689075 0 0 0
1371 1 112.53000660000001 33.468986089511 1.04689075 0 0 0
1372 1 110.82498944999901 36.422132789511 1.04689075 0 0 0
1373 1 109.12000640000001 39.375309020978 1.04689075 0 0 0
1374 1 107.41498924999901 42.328426189511 1.04689075 0 0 0
1375 1 117.644989849999 30.515868920978 1.04689075 0 0 0
1376 1 115.93998974999901 33.468986089511 1.04689075 0 0 0
1377 1 114.23498964999901 36.422132789511 1.04689075 0 0 0
1378 1 112.53000660000001 39.375309020978 1.04689075 0 0 0
1379 1 110.82498944999901 42.328426189511 1.04689075 0 0 0
1380 2 102.30000600000001 31.500241310489 1.04689075 0 0 0
1381 2 105.71000620000001 31.500241310489 1.04689075 0 0 0
1382 2 104.00502315000101 34.453358479022 1.04689075 0 0 0
1383 2 102.30000600000001 37.406505179022 1.04689075 0 0 0
1384 2 109.12000640000001 31.500241310489 1.04689075 0 0 0
1385 2 107.41502335000101 34.453358479022 1.04689075 0 0 0
1386 2 105.71000620000001 37.406505179022 1.04689075 0 0 0
1387 2 104.00502315000101 40.359681410489 1.04689075 0 0 0
1388 2 102.30000600000001 43.312798579022 1.04689075 0 0 0
1389 2 112.53002365000101 31.500241310489 1.04689075 0 0 0
1390 2 110.82500650000001 34.453358479022 1.04689075 0 0 0
1391 2 109.12000640000001 37.406505179022 1.04689075 0 0 0
1392 2 107.41502335000101 40.359681410489 1.04689075 0 0 0
1393 2 105.71000620000001 43.312798579022 1.04689075 0 0 0
1394 2 115.94002385000101 31.500241310489 1.04689075 0 0 0
1395 2 114.235023750001 34.453358479022 1.04689075 0 0 0
1396 2 112.53002365000101 37.406505179022 1.04689075 0 0 0
1397 2 110.82500650000001 40.359681410489 1.04689075 0 0 0
1398 2 109.12000640000001 43.312798579022 1.04689075 0 0 0
1399 1 102.30000600000001 45.281602420978 1.04689075 0 0 0
1400 1 105.709989149999 45.281602420978 1.04689075 0 0 0
1401 1 104.00500610000002 48.234719589511 1.04689075 0 0 0
1402 1 102.30000600000001 51.187866289511 1.04689075 0 0 0
1403 1 109.12000640000001 45.281602420978 1.04689075 0 0 0
1404 1 107.41498924999901 48.234719589511 1.04689075 0 0 0
1405 1 105.709989149999 51.187866289511 1.04689075 0 0 0
1406 1 104.00500610000002 54.141012989511 1.04689075 0 0 0
1407 1 102.30000600000001 57.094189220977995 1.04689075 0 0 0
1408 2 104.00502315000101 46.265945279022 1.04689075 0 0 0
1409 2 102.30000600000001 49.219121510489 1.04689075 0 0 0
1410 2 107.41502335000101 46.265945279022 1.04689075 0 0 0
1411 2 105.71000620000001 49.219121510489 1.04689075 0 0 0
1412 2 104.00502315000101 52.172268210488994 1.04689075 0 0 0
1413 2 102.30000600000001 55.125414910489 1.04689075 0 0 0
1414 1 117.644989849999 36.422132789511 1.04689075 0 0 0
1415 1 115.93998974999901 39.375309020978 1.04689075 0 0 0
1416 1 114.23498964999901 42.328426189511 1.04689075 0 0 0
1417 2 134.6950079 58.078532079022 1.04689075 0 0 0
1418 2 117.64500690000001 34.453358479022 1.04689075 0 0 0
1419 2 115.94002385000101 37.406505179022 1.04689075 0 0 0
1420 2 114.235023750001 40.359681410489 1.04689075 0 0 0
1421 2 112.53002365000101 43.312798579022 1.04689075 0 0 0
1422 2 117.64500690000001 40.359681410489 1.04689075 0 0 0
1423 2 115.94002385000101 43.312798579022 1.04689075 0 0 0
1424 1 112.53000660000001 45.281602420978 1.04689075 0 0 0
1425 1 110.82498944999901 48.234719589511 1.04689075 0 0 0
1426 1 109.12000640000001 51.187866289511 1.04689075 0 0 0
1427 1 107.41498924999901 54.141012989511 1.04689075 0 0 0
1428 1 105.709989149999 57.094189220977995 1.04689075 0 0 0
1429 1 115.93998974999901 45.281602420978 1.04689075 0 0 0
1430 1 114.23498964999901 48.234719589511 1.04689075 0 0 0
1431 1 112.53000660000001 51.187866289511 1.04689075 0 0 0
1432 1 110.82498944999901 54.141012989511 1.04689075 0 0 0
1433 1 109.12000640000001 57.094189220977995 1.04689075 0 0 0
1434 1 117.644989849999 48.234719589511 1.04689075 0 0 0
1435 1 115.93998974999901 51.187866289511 1.04689075 0 0 0
1436 1 114.23498964999901 54.141012989511 1.04689075 0 0 0
1437 1 112.53000660000001 57.094189220977995 1.04689075 0 0 0
1438 1 117.644989849999 54.141012989511 1.04689075 0 0 0
1439 1 115.93998974999901 57.094189220977995 1.04689075 0 0 0
1440 2 110.82500650000001 46.265945279022 1.04689075 0 0 0
1441 2 109.12000640000001 49.219121510489 1.04689075 0 0 0
1442 2 107.41502335000101 52.172268210488994 1.04689075 0 0 0
1443 2 105.71000620000001 55.125414910489 1.04689075 0 0 0
1444 2 104.00502315000101 58.078532079022 1.04689075 0 0 0
1445 2 114.235023750001 46.265945279022 1.04689075 0 0 0
1446 2 112.53002365000101 49.219121510489 1.04689075 0 0 0
1447 2 110.82500650000001 52.172268210488994 1.04689075 0 0 0
1448 2 109.12000640000001 55.125414910489 1.04689075 0 0 0
1449 2 107.41502335000101 58.078532079022 1.04689075 0 0 0
1450 2 131.285024750001 58.078532079022 1.04689075 0 0 0
1451 2 115.94002385000101 49.219121510489 1.04689075 0 0 0
1452 2 114.235023750001 52.172268210488994 1.04689075 0 0 0
1453 2 112.53002365000101 55.125414910489 1.04689075 0 0 0
1454 2 110.82500650000001 58.078532079022 1.04689075 0 0 0
1455 2 117.64500690000001 52.172268210488994 1.04689075 0 0 0
1456 2 115.94002385000101 55.125414910489 1.04689075 0 0 0
1457 2 114.235023750001 58.078532079022 1.04689075 0 0 0
1458 2 117.64500690000001 58.078532079022 1.04689075 0 0 0
1459 1 121.05500710000001 30.515868920978 1.04689075 0 0 0
1460 1 119.350007 33.468986089511 1.04689075 0 0 0
1461 1 124.464990249999 30.515868920978 1.04689075 0 0 0
1462 1 122.75999014999901 33.468986089511 1.04689075 0 0 0
1463 1 121.05500710000001 36.422132789511 1.04689075 0 0 0
1464 1 119.350007 39.375309020978 1.04689075 0 0 0
1465 1 127.87499044999902 30.515868920978 1.04689075 0 0 0
1466 1 126.1700074 33.468986089511 1.04689075 0 0 0
1467 1 124.464990249999 36.422132789511 1.04689075 0 0 0
1468 1 122.75999014999901 39.375309020978 1.04689075 0 0 0
1469 2 132.99002485000102 55.125414910489 1.04689075 0 0 0
1470 1 131.284990649999 30.515868920978 1.04689075 0 0 0
1471 1 129.58000760000002 33.468986089511 1.04689075 0 0 0
1472 1 127.87499044999902 36.422132789511 1.04689075 0 0 0
1473 1 126.1700074 39.375309020978 1.04689075 0 0 0
1474 1 124.464990249999 42.328426189511 1.04689075 0 0 0
1475 1 134.69499084999902 30.515868920978 1.04689075 0 0 0
1476 1 132.989990749999 33.468986089511 1.04689075 0 0 0
1477 1 131.284990649999 36.422132789511 1.04689075 0 0 0
1478 1 129.58000760000002 39.375309020978 1.04689075 0 0 0
1479 1 127.87499044999902 42.328426189511 1.04689075 0 0 0
1480 2 119.350007 31.500241310489 1.04689075 0 0 0
1481 2 122.76000720000002 31.500241310489 1.04689075 0 0 0
1482 2 121.055024150001 34.453358479022 1.04689075 0 0 0
1483 2 119.350007 37.406505179022 1.04689075 0 0 0
1484 2 126.1700074 31.500241310489 1.04689075 0 0 0
1485 2 124.46502435000102 34.453358479022 1.04689075 0 0 0
1486 2 122.76000720000002 37.406505179022 1.04689075 0 0 0
1487 2 121.055024150001 40.359681410489 1.04689075 0 0 0
1488 2 134.6950079 52.172268210488994 1.04689075 0 0 0
1489 2 129.580024650001 31.500241310489 1.04689075 0 0 0
1490 2 127.87500750000001 34.453358479022 1.04689075 0 0 0
1491 2 126.1700074 37.406505179022 1.04689075 0 0 0
1492 2 124.46502435000102 40.359681410489 1.04689075 0 0 0
1493 2 122.76000720000002 43.312798579022 1.04689075 0 0 0
1494 2 132.99002485000102 31.500241310489 1.04689075 0 0 0
1495 2 131.285024750001 34.453358479022 1.04689075 0 0 0
1496 2 129.580024650001 37.406505179022 1.04689075 0 0 0
1497 2 127.87500750000001 40.359681410489 1.04689075 0 0 0
1498 2 126.1700074 43.312798579022 1.04689075 0 0 0
1499 2 127.87500750000001 58.078532079022 1.04689075 0 0 0
1500 1 122.75999014999901 45.281602420978 1.04689075 0 0 0
1501 1 121.05500710000001 48.234719589511 1.04689075 0 0 0
1502 1 119.350007 51.187866289511 1.04689075 0 0 0
1503 1 126.1700074 45.281602420978 1.04689075 0 0 0
1504 1 124.464990249999 48.234719589511 1.04689075 0 0 0
1505 1 122.75999014999901 51.187866289511 1.04689075 0 0 0
1506 1 121.05500710000001 54.141012989511 1.04689075 0 0 0
1507 1 119.350007 57.094189220977995 1.04689075 0 0 0
1508 2 129.580024650001 55.125414910489 1.04689075 0 0 0
1509 2 119.350007 49.219121510489 1.04689075 0 0 0
1510 2 124.46502435000102 46.265945279022 1.04689075 0 0 0
1511 2 122.76000720000002 49.219121510489 1.04689075 0 0 0
1512 2 121.055024150001 52.172268210488994 1.04689075 0 0 0
1513 2 119.350007 55.125414910489 1.04689075 0 0 0
1514 1 134.69499084999902 36.422132789511 1.04689075 0 0 0
1515 1 132.989990749999 39.375309020978 1.04689075 0 0 0
1516 1 131.284990649999 42.328426189511 1.04689075 0 0 0
1517 1 134.69499084999902 42.328426189511 1.04689075 0 0 0
1518 2 134.6950079 34.453358479022 1.04689075 0 0 0
1519 2 132.99002485000102 37.406505179022 1.04689075 0 0 0
1520 2 131.285024750001 40.359681410489 1.04689075 0 0 0
1521 2 129.580024650001 43.312798579022 1.04689075 0 0 0
1522 2 134.6950079 40.359681410489 1.04689075 0 0 0
1523 2 132.99002485000102 43.312798579022 1.04689075 0 0 0
1524 1 129.58000760000002 45.281602420978 1.04689075 0 0 0
1525 1 127.87499044999902 48.234719589511 1.04689075 0 0 0
1526 1 126.1700074 51.187866289511 1.04689075 0 0 0
1527 1 124.464990249999 54.141012989511 1.04689075 0 0 0
1528 1 122.75999014999901 57.094189220977995 1.04689075 0 0 0
1529 1 132.989990749999 45.281602420978 1.04689075 0 0 0
1530 1 131.284990649999 48.234719589511 1.04689075 0 0 0
1531 1 129.58000760000002 51.187866289511 1.04689075 0 0 0
1532 1 127.87499044999902 54.141012989511 1.04689075 0 0 0
1533 1 126.1700074 57.094189220977995 1.04689075 0 0 0
1534 1 134.69499084999902 48.234719589511 1.04689075 0 0 0
1535 1 132.989990749999 51.187866289511 1.04689075 0 0 0
1536 1 131.284990649999 54.141012989511 1.04689075 0 0 0
1537 1 129.58000760000002 57.094189220977995 1.04689075 0 0 0
1538 1 134.69499084999902 54.141012989511 1.04689075 0 0 0
1539 1 132.989990749999 57.094189220977995 1.04689075 0 0 0
1540 2 127.87500750000001 46.265945279022 1.04689075 0 0 0
1541 2 126.1700074 49.219121510489 1.04689075 0 0 0
1542 2 124.46502435000102 52.172268210488994 1.04689075 0 0 0
1543 2 122.76000720000002 55.125414910489 1.04689075 0 0 0
1544 2 121.055024150001 58.078532079022 1.04689075 0 0 0
1545 2 131.285024750001 46.265945279022 1.04689075 0 0 0
1546 2 129.580024650001 49.219121510489 1.04689075 0 0 0
1547 2 127.87500750000001 52.172268210488994 1.04689075 0 0 0
1548 2 126.1700074 55.125414910489 1.04689075 0 0 0
1549 2 124.46502435000102 58.078532079022 1.04689075 0 0 0
1550 2 134.6950079 46.265945279022 1.04689075 0 0 0
1551 2 132.99002485000102 49.219121510489 1.04689075 0 0 0
1552 2 131.285024750001 52.172268210488994 1.04689075 0 0 0
2135 1 104.00500610000002 60.047335920978 1.04689075 0 0 0
2136 1 102.30000600000001 63.000453089511 1.04689075 0 0 0
2137 1 107.41498924999901 60.047335920978 1.04689075 0 0 0
2138 1 105.709989149999 63.000453089511 1.04689075 0 0 0
2139 1 104.00500610000002 65.953599789511 1.04689075 0 0 0
2140 1 102.30000600000001 68.906776020978 1.04689075 0 0 0
2141 1 110.82498944999901 60.047335920978 1.04689075 0 0 0
2142 1 109.12000640000001 63.000453089511 1.04689075 0 0 0
2143 1 107.41498924999901 65.953599789511 1.04689075 0 0 0
2144 1 105.709989149999 68.906776020978 1.04689075 0 0 0
2145 1 104.00500610000002 71.859893189511 1.04689075 0 0 0
2146 1 114.23498964999901 60.047335920978 1.04689075 0 0 0
2147 1 112.53000660000001 63.000453089511 1.04689075 0 0 0
2148 1 110.82498944999901 65.953599789511 1.04689075 0 0 0
2149 1 109.12000640000001 68.906776020978 1.04689075 0 0 0
2150 1 107.41498924999901 71.859893189511 1.04689075 0 0 0
2151 1 117.644989849999 60.047335920978 1.04689075 0 0 0
2152 1 115.93998974999901 63.000453089511 1.04689075 0 0 0
2153 1 114.23498964999901 65.953599789511 1.04689075 0 0 0
2154 1 112.53000660000001 68.906776020978 1.04689075 0 0 0
2155 1 110.82498944999901 71.859893189511 1.04689075 0 0 0
2156 2 102.30000600000001 61.031708310489 1.04689075 0 0 0
2157 2 105.71000620000001 61.031708310489 1.04689075 0 0 0
2158 2 104.00502315000101 63.984825479022 1.04689075 0 0 0
2159 2 102.30000600000001 66.937972179022 1.04689075 0 0 0
2160 2 109.12000640000001 61.031708310489 1.04689075 0 0 0
2161 2 107.41502335000101 63.984825479022 1.04689075 0 0 0
2162 2 105.71000620000001 66.937972179022 1.04689075 0 0 0
2163 2 104.00502315000101 69.891148410489 1.04689075 0 0 0
2164 2 102.30000600000001 72.844265579022 1.04689075 0 0 0
2165 2 112.53002365000101 61.031708310489 1.04689075 0 0 0
2166 2 110.82500650000001 63.984825479022 1.04689075 0 0 0
2167 2 109.12000640000001 66.937972179022 1.04689075 0 0 0
2168 2 107.41502335000101 69.891148410489 1.04689075 0 0 0
2169 2 105.71000620000001 72.844265579022 1.04689075 0 0 0
2170 2 115.94002385000101 61.031708310489 1.04689075 0 0 0
2171 2 114.235023750001 63.984825479022 1.04689075 0 0 0
2172 2 112.53002365000101 66.937972179022 1.04689075 0 0 0
2173 2 110.82500650000001 69.891148410489 1.04689075 0 0 0
2174 2 109.12000640000001 72.844265579022 1.04689075 0 0 0
2175 1 102.30000600000001 74.813069420978 1.04689075 0 0 0
2176 1 105.709989149999 74.813069420978 1.04689075 0 0 0
2177 1 104.00500610000002 77.766186589511 1.04689075 0 0 0
2178 1 102.30000600000001 80.719333289511 1.04689075 0 0 0
2179 1 109.12000640000001 74.813069420978 1.04689075 0 0 0
2180 1 107.41498924999901 77.766186589511 1.04689075 0 0 0
2181 1 105.709989149999 80.719333289511 1.04689075 0 0 0
2182 1 104.00500610000002 83.672479989511 1.04689075 0 0 0
2183 1 102.30000600000001 86.625656220978 1.04689075 0 0 0
2184 2 104.00502315000101 75.797412279022 1.04689075 0 0 0
2185 2 102.30000600000001 78.750588510489 1.04689075 0 0 0
2186 2 107.41502335000101 75.797412279022 1.04689075 0 0 0
2187 2 105.71000620000001 78.750588510489 1.04689075 0 0 0
2188 2 104.00502315000101 81.703735210489 1.04689075 0 0 0
2189 2 102.30000600000001 84.656881910489 1.04689075 0 0 0
2190 1 117.644989849999 65.953599789511 1.04689075 0 0 0
2191 1 115.93998974999901 68.906776020978 1.04689075 0 0 0
2192 1 114.23498964999901 71.859893189511 1.04689075 0 0 0
2193 2 134.6950079 87.609999079022 1.04689075 0 0 0
2194 2 117.64500690000001 63.984825479022 1.04689075 0 0 0
2195 2 115.94002385000101 66.937972179022 1.04689075 0 0 0
2196 2 114.235023750001 69.891148410489 1.04689075 0 0 0
2197 2 112.53002365000101 72.844265579022 1.04689075 0 0 0
2198 2 117.64500690000001 69.891148410489 1.04689075 0 0 0
2199 2 115.94002385000101 72.844265579022 1.04689075 0 0 0
2200 1 112.53000660000001 74.813069420978 1.04689075 0 0 0
2201 1 110.82498944999901 77.766186589511 1.04689075 0 0 0
2202 1 109.12000640000001 80.719333289511 1.04689075 0 0 0
2203 1 107.41498924999901 83.672479989511 1.04689075 0 0 0
2204 1 105.709989149999 86.625656220978 1.04689075 0 0 0
2205 1 115.93998974999901 74.813069420978 1.04689075 0 0 0
2206 1 114.23498964999901 77.766186589511 1.04689075 0 0 0
2207 1 112.53000660000001 80.719333289511 1.04689075 0 0 0
2208 1 110.82498944999901 83.672479989511 1.04689075 0 0 0
2209 1 109.12000640000001 86.625656220978 1.04689075 0 0 0
2210 1 117.644989849999 77.766186589511 1.04689075 0 0 0
2211 1 115.93998974999901 80.719333289511 1.04689075 0 0 0
2212 1 114.23498964999901 83.672479989511 1.04689075 0 0 0
2213 1 112.53000660000001 86.625656220978 1.04689075 0 0 0
2214 1 117.644989849999 83.672479989511 1.04689075 0 0 0
2215 1 115.93998974999901 86.625656220978 1.04689075 0 0 0
2216 2 110.82500650000001 75.797412279022 1.04689075 0 0 0
2217 2 109.12000640000001 78.750588510489 1.04689075 0 0 0
2218 2 107.41502335000101 81.703735210489 1.04689075 0 0 0
2219 2 105.71000620000001 84.656881910489 1.04689075 0 0 0
2220 2 104.00502315000101 87.609999079022 1.04689075 0 0 0
2221 2 114.235023750001 75.797412279022 1.04689075 0 0 0
2222 2 112.53002365000101 78.750588510489 1.04689075 0 0 0
2223 2 110.82500650000001 81.703735210489 1.04689075 0 0 0
2224 2 109.12000640000001 84.656881910489 1.04689075 0 0 0
2225 2 107.41502335000101 87.609999079022 1.04689075 0 0 0
2226 2 131.285024750001 87.609999079022 1.04689075 0 0 0
2227 2 115.94002385000101 78.750588510489 1.04689075 0 0 0
2228 2 114.235023750001 81.703735210489 1.04689075 0 0 0
2229 2 112.53002365000101 84.656881910489 1.04689075 0 0 0
2230 2 110.82500650000001 87.609999079022 1.04689075 0 0 0
2231 2 117.64500690000001 81.703735210489 1.04689075 0 0 0
2232 2 115.94002385000101 84.656881910489 1.04689075 0 0 0
2233 2 114.235023750001 87.609999079022 1.04689075 0 0 0
2234 2 117.64500690000001 87.609999079022 1.04689075 0 0 0
2235 1 121.05500710000001 60.047335920978 1.04689075 0 0 0
2236 1 119.350007 63.000453089511 1.04689075 0 0 0
2237 1 124.464990249999 60.047335920978 1.04689075 0 0 0
2238 1 122.75999014999901 63.000453089511 1.04689075 0 0 0
2239 1 121.05500710000001 65.953599789511 1.04689075 0 0 0
2240 1 119.350007 68.906776020978 1.04689075 0 0 0
2241 1 127.87499044999902 60.047335920978 1.04689075 0 0 0
2242 1 126.1700074 63.000453089511 1.04689075 0 0 0
2243 1 124.464990249999 65.953599789511 1.04689075 0 0 0
2244 1 122.75999014999901 68.906776020978 1.04689075 0 0 0
2245 2 132.99002485000102 84.656881910489 1.04689075 0 0 0
2246 1 131.284990649999 60.047335920978 1.04689075 0 0 0
2247 1 129.58000760000002 63.000453089511 1.04689075 0 0 0
2248 1 127.87499044999902 65.953599789511 1.04689075 0 0 0
2249 1 126.1700074 68.906776020978 1.04689075 0 0 0
2250 1 124.464990249999 71.859893189511 1.04689075 0 0 0
2251 1 134.69499084999902 60.047335920978 1.04689075 0 0 0
2252 1 132.989990749999 63.000453089511 1.04689075 0 0 0
2253 1 131.284990649999 65.953599789511 1.04689075 0 0 0
2254 1 129.58000760000002 68.906776020978 1.04689075 0 0 0
2255 1 127.87499044999902 71.859893189511 1.04689075 0 0 0
2256 2 119.350007 61.031708310489 1.04689075 0 0 0
2257 2 122.76000720000002 61.031708310489 1.04689075 0 0 0
2258 2 121.055024150001 63.984825479022 1.04689075 0 0 0
2259 2 119.350007 66.937972179022 1.04689075 0 0 0
2260 2 126.1700074 61.031708310489 1.04689075 0 0 0
2261 2 124.46502435000102 63.984825479022 1.04689075 0 0 0
2262 2 122.76000720000002 66.937972179022 1.04689075 0 0 0
2263 2 121.055024150001 69.891148410489 1.04689075 0 0 0
2264 2 134.6950079 81.703735210489 1.04689075 0 0 0
2265 2 129.580024650001 61.031708310489 1.04689075 0 0 0
2266 2 127.87500750000001 63.984825479022 1.04689075 0 0 0
2267 2 126.1700074 66.937972179022 1.04689075 0 0 0
2268 2 124.46502435000102 69.891148410489 1.04689075 0 0 0
2269 2 122.76000720000002 72.844265579022 1.04689075 0 0 0
2270 2 132.99002485000102 61.031708310489 1.04689075 0 0 0
2271 2 131.285024750001 63.984825479022 1.04689075 0 0 0
2272 2 129.580024650001 66.937972179022 1.04689075 0 0 0
2273 2 127.87500750000001 69.891148410489 1.04689075 0 0 0
2274 2 126.1700074 72.844265579022 1.04689075 0 0 0
2275 2 127.87500750000001 87.609999079022 1.04689075 0 0 0
2276 1 122.75999014999901 74.813069420978 1.04689075 0 0 0
2277 1 121.05500710000001 77.766186589511 1.04689075 0 0 0
2278 1 119.350007 80.719333289511 1.04689075 0 0 0
2279 1 126.1700074 74.813069420978 1.04689075 0 0 0
2280 1 124.464990249999 77.766186589511 1.04689075 0 0 0
2281 1 122.75999014999901 80.719333289511 1.04689075 0 0 0
2282 1 121.05500710000001 83.672479989511 1.04689075 0 0 0
2283 1 119.350007 86.625656220978 1.04689075 0 0 0
2284 2 129.580024650001 84.656881910489 1.04689075 0 0 0
2285 2 119.350007 78.750588510489 1.04689075 0 0 0
2286 2 124.46502435000102 75.797412279022 1.04689075 0 0 0
2287 2 122.76000720000002 78.750588510489 1.04689075 0 0 0
2288 2 121.055024150001 81.703735210489 1.04689075 0 0 0
2289 2 119.350007 84.656881910489 1.04689075 0 0 0
2290 1 134.69499084999902 65.953599789511 1.04689075 0 0 0
2291 1 132.989990749999 68.906776020978 1.04689075 0 0 0
2292 1 131.284990649999 71.859893189511 1.04689075 0 0 0
2293 1 134.69499084999902 71.859893189511 1.04689075 0 0 0
2294 2 134.6950079 63.984825479022 1.04689075 0 0 0
2295 2 132.99002485000102 66.937972179022 1.04689075 0 0 0
2296 2 131.285024750001 69.891148410489 1.04689075 0 0 0
2297 2 129.580024650001 72.844265579022 1.04689075 0 0 0
2298 2 134.6950079 69.891148410489 1.04689075 0 0 0
2299 2 132.99002485000102 72.844265579022 1.04689075 0 0 0
2300 1 129.58000760000002 74.813069420978 1.04689075 0 0 0
2301 1 127.87499044999902 77.766186589511 1.04689075 0 0 0
2302 1 126.1700074 80.719333289511 1.04689075 0 0 0
2303 1 124.464990249999 83.672479989511 1.04689075 0 0 0
2304 1 122.75999014999901 86.625656220978 1.04689075 0 0 0
2305 1 132.989990749999 74.813069420978 1.04689075 0 0 0
2306 1 131.284990649999 77.766186589511 1.04689075 0 0 0
2307 1 129.58000760000002 80.719333289511 1.04689075 0 0 0
2308 1 127.87499044999902 83.672479989511 1.04689075 0 0 0
2309 1 126.1700074 86.625656220978 1.04689075 0 0 0
2310 1 134.69499084999902 77.766186589511 1.04689075 0 0 0
2311 1 132.989990749999 80.719333289511 1.04689075 0 0 0
2312 1 131.284990649999 83.672479989511 1.04689075 0 0 0
2313 1 129.58000760000002 86.625656220978 1.04689075 0 0 0
2314 1 134.69499084999902 83.672479989511 1.04689075 0 0 0
2315 1 132.989990749999 86.625656220978 1.04689075 0 0 0
2316 2 127.87500750000001 75.797412279022 1.04689075 0 0 0
2317 2 126.1700074 78.750588510489 1.04689075 0 0 0
2318 2 124.46502435000102 81.703735210489 1.04689075 0 0 0
2319 2 122.76000720000002 84.656881910489 1.04689075 0 0 0
2320 2 121.055024150001 87.609999079022 1.04689075 0 0 0
2321 2 131.285024750001 75.797412279022 1.04689075 0 0 0
2322 2 129.580024650001 78.750588510489 1.04689075 0 0 0
2323 2 127.87500750000001 81.703735210489 1.04689075 0 0 0
2324 2 126.1700074 84.656881910489 1.04689075 0 0 0
2325 2 124.46502435000102 87.609999079022 1.04689075 0 0 0
2326 2 134.6950079 75.797412279022 1.04689075 0 0 0
2327 2 132.99002485000102 78.750588510489 1.04689075 0 0 0
2328 2 131.285024750001 81.703735210489 1.04689075 0 0 0
2911 1 104.00500610000002 89.578802920978 1.04689075 0 0 0
2912 1 102.30000600000001 92.531920089511 1.04689075 0 0 0
2913 1 107.41498924999901 89.578802920978 1.04689075 0 0 0
2914 1 105.709989149999 92.531920089511 1.04689075 0 0 0
2915 1 104.00500610000002 95.48506678951101 1.04689075 0 0 0
2916 1 102.30000600000001 98.438243020978 1.04689075 0 0 0
2917 1 110.82498944999901 89.578802920978 1.04689075 0 0 0
2918 1 109.12000640000001 92.531920089511 1.04689075 0 0 0
2919 1 107.41498924999901 95.48506678951101 1.04689075 0 0 0
2920 1 105.709989149999 98.438243020978 1.04689075 0 0 0
2921 1 104.00500610000002 101.391360189511 1.04689075 0 0 0
2922 1 114.23498964999901 89.578802920978 1.04689075 0 0 0
2923 1 112.53000660000001 92.531920089511 1.04689075 0 0 0
2924 1 110.82498944999901 95.48506678951101 1.04689075 0 0 0
2925 1 109.12000640000001 98.438243020978 1.04689075 0 0 0
2926 1 107.41498924999901 101.391360189511 1.04689075 0 0 0
2927 1 117.644989849999 89.578802920978 1.04689075 0 0 0
2928 1 115.93998974999901 92.531920089511 1.04689075 0 0 0
2929 1 114.23498964999901 95.48506678951101 1.04689075 0 0 0
2930 1 112.53000660000001 98.438243020978 1.04689075 0 0 0
2931 1 110.82498944999901 101.391360189511 1.04689075 0 0 0
2932 2 102.30000600000001 90.563175310489 1.04689075 0 0 0
2933 2 105.71000620000001 90.563175310489 1.04689075 0 0 0
2934 2 104.00502315000101 93.516292479022 1.04689075 0 0 0
2935 2 102.30000600000001 96.469439179022 1.04689075 0 0 0
2936 2 109.12000640000001 90.563175310489 1.04689075 0 0 0
2937 2 107.41502335000101 93.516292479022 1.04689075 0 0 0
2938 2 105.71000620000001 96.469439179022 1.04689075 0 0 0
2939 2 104.00502315000101 99.422615410489 1.04689075 0 0 0
2940 2 102.30000600000001 102.375732579022 1.04689075 0 0 0
2941 2 112.53002365000101 90.563175310489 1.04689075 0 0 0
2942 2 110.82500650000001 93.516292479022 1.04689075 0 0 0
2943 2 109.12000640000001 96.469439179022 1.04689075 0 0 0
2944 2 107.41502335000101 99.422615410489 1.04689075 0 0 0
2945 2 105.71000620000001 102.375732579022 1.04689075 0 0 0
2946 2 115.94002385000101 90.563175310489 1.04689075 0 0 0
2947 2 114.235023750001 93.516292479022 1.04689075 0 0 0
2948 2 112.53002365000101 96.469439179022 1.04689075 0 0 0
2949 2 110.82500650000001 99.422615410489 1.04689075 0 0 0
2950 2 109.12000640000001 102.375732579022 1.04689075 0 0 0
2951 1 102.30000600000001 104.344536420978 1.04689075 0 0 0
2952 1 105.709989149999 104.344536420978 1.04689075 0 0 0
2953 1 104.00500610000002 107.297653589511 1.04689075 0 0 0
2954 1 102.30000600000001 110.250800289511 1.04689075 0 0 0
2955 1 109.12000640000001 104.344536420978 1.04689075 0 0 0
2956 1 107.41498924999901 107.297653589511 1.04689075 0 0 0
2957 1 105.709989149999 110.250800289511 1.04689075 0 0 0
2958 1 104.00500610000002 113.203946989511 1.04689075 0 0 0
2959 1 102.30000600000001 116.15712322097801 1.04689075 0 0 0
2960 2 104.00502315000101 105.328879279022 1.04689075 0 0 0
2961 2 102.30000600000001 108.282055510489 1.04689075 0 0 0
2962 2 107.41502335000101 105.328879279022 1.04689075 0 0 0
2963 2 105.71000620000001 108.282055510489 1.04689075 0 0 0
2964 2 104.00502315000101 111.235202210489 1.04689075 0 0 0
2965 2 102.30000600000001 114.188348910489 1.04689075 0 0 0
2966 1 117.644989849999 95.48506678951101 1.04689075 0 0 0
2967 1 115.93998974999901 98.438243020978 1.04689075 0 0 0
2968 1 114.23498964999901 101.391360189511 1.04689075 0 0 0
2969 2 134.6950079 117.14146607902201 1.04689075 0 0 0
2970 2 117.64500690000001 93.516292479022 1.04689075 0 0 0
2971 2 115.94002385000101 96.469439179022 1.04689075 0 0 0
2972 2 114.235023750001 99.422615410489 1.04689075 0 0 0
2973 2 112.53002365000101 102.375732579022 1.04689075 0 0 0
2974 2 117.64500690000001 99.422615410489 1.04689075 0 0 0
2975 2 115.94002385000101 102.375732579022 1.04689075 0 0 0
2976 1 112.53000660000001 104.344536420978 1.04689075 0 0 0
2977 1 110.82498944999901 107.297653589511 1.04689075 0 0 0
2978 1 109.12000640000001 110.250800289511 1.04689075 0 0 0
2979 1 107.41498924999901 113.203946989511 1.04689075 0 0 0
2980 1 105.709989149999 116.15712322097801 1.04689075 0 0 0
2981 1 115.93998974999901 104.344536420978 1.04689075 0 0 0
2982 1 114.23498964999901 107.297653589511 1.04689075 0 0 0
2983 1 112.53000660000001 110.250800289511 1.04689075 0 0 0
2984 1 110.82498944999901 113.203946989511 1.04689075 0 0 0
2985 1 109.12000640000001 116.15712322097801 1.04689075 0 0 0
2986 1 117.644989849999 107.297653589511 1.04689075 0 0 0
2987 1 115.93998974999901 110.250800289511 1.04689075 0 0 0
2988 1 114.23498964999901 113.203946989511 1.04689075 0 0 0
2989 1 112.53000660000001 116.15712322097801 1.04689075 0 0 0
2990 1 117.644989849999 113.203946989511 1.04689075 0 0 0
2991 1 115.93998974999901 116.15712322097801 1.04689075 0 0 0
2992 2 110.82500650000001 105.328879279022 1.04689075 0 0 0
2993 2 109.12000640000001 108.282055510489 1.04689075 0 0 0
2994 2 107.41502335000101 111.235202210489 1.04689075 0 0 0
2995 2 105.71000620000001 114.188348910489 1.04689075 0 0 0
2996 2 104.00502315000101 117.14146607902201 1.04689075 0 0 0
2997 2 114.235023750001 105.328879279022 1.04689075 0 0 0
2998 2 112.53002365000101 108.282055510489 1.04689075 0 0 0
2999 2 110.82500650000001 111.235202210489 1.04689075 0 0 0
3000 2 109.12000640000001 114.188348910489 1.04689075 0 0 0
3001 2 107.41502335000101 117.14146607902201 1.04689075 0 0 0
3002 2 131.285024750001 117.14146607902201 1.04689075 0 0 0
3003 2 115.94002385000101 108.282055510489 1.04689075 0 0 0
3004 2 114.235023750001 111.235202210489 1.04689075 0 0 0
3005 2 112.53002365000101 114.188348910489 1.04689075 0 0 0
3006 2 110.82500650000001 117.14146607902201 1.04689075 0 0 0
3007 2 117.64500690000001 111.235202210489 1.04689075 0 0 0
3008 2 115.94002385000101 114.188348910489 1.04689075 0 0 0
3009 2 114.235023750001 117.14146607902201 1.04689075 0 0 0
3010 2 117.64500690000001 117.14146607902201 1.04689075 0 0 0
3011 1 121.05500710000001 89.578802920978 1.04689075 0 0 0
3012 1 119.350007 92.531920089511 1.04689075 0 0 0
3013 1 124.464990249999 89.578802920978 1.04689075 0 0 0
3014 1 122.75999014999901 92.531920089511 1.04689075 0 0 0
3015 1 121.05500710000001 95.48506678951101 1.04689075 0 0 0
3016 1 119.350007 98.438243020978 1.04689075 0 0 0
3017 1 127.87499044999902 89.578802920978 1.04689075 0 0 0
3018 1 126.1700074 92.531920089511 1.04689075 0 0 0
3019 1 124.464990249999 95.48506678951101 1.04689075 0 0 0
3020 1 122.75999014999901 98.438243020978 1.04689075 0 0 0
3021 2 132.99002485000102 114.188348910489 1.04689075 0 0 0
3022 1 131.284990649999 89.578802920978 1.04689075 0 0 0
3023 1 129.58000760000002 92.531920089511 1.04689075 0 0 0
3024 1 127.87499044999902 95.48506678951101 1.04689075 0 0 0
3025 1 126.1700074 98.438243020978 1.04689075 0 0 0
3026 1 124.464990249999 101.391360189511 1.04689075 0 0 0
3027 1 134.69499084999902 89.578802920978 1.04689075 0 0 0
3028 1 132.989990749999 92.531920089511 1.04689075 0 0 0
3029 1 131.284990649999 95.48506678951101 1.04689075 0 0 0
3030 1 129.58000760000002 98.438243020978 1.04689075 0 0 0
3031 1 127.87499044999902 101.391360189511 1.04689075 0 0 0
3032 2 119.350007 90.563175310489 1.04689075 0 0 0
3033 2 122.76000720000002 90.563175310489 1.04689075 0 0 0
3034 2 121.055024150001 93.516292479022 1.04689075 0 0 0
3035 2 119.350007 96.469439179022 1.04689075 0 0 0
3036 2 126.1700074 90.563175310489 1.04689075 0 0 0
3037 2 124.46502435000102 93.516292479022 1.04689075 0 0 0
3038 2 122.76000720000002 96.469439179022 1.04689075 0 0 0
3039 2 121.055024150001 99.422615410489 1.04689075 0 0 0
3040 2 134.6950079 111.235202210489 1.04689075 0 0 0
3041 2 129.580024650001 90.563175310489 1.04689075 0 0 0
3042 2 127.87500750000001 93.516292479022 1.04689075 0 0 0
3043 2 126.1700074 96.469439179022 1.04689075 0 0 0
3044 2 124.46502435000102 99.422615410489 1.04689075 0 0 0
3045 2 122.76000720000002 102.375732579022 1.04689075 0 0 0
3046 2 132.99002485000102 90.563175310489 1.04689075 0 0 0
3047 2 131.285024750001 93.516292479022 1.04689075 0 0 0
3048 2 129.580024650001 96.469439179022 1.04689075 0 0 0
3049 2 127.87500750000001 99.422615410489 1.04689075 0 0 0
3050 2 126.1700074 102.375732579022 1.04689075 0 0 0
3051 2 127.87500750000001 117.14146607902201 1.04689075 0 0 0
3052 1 122.75999014999901 104.344536420978 1.04689075 0 0 0
3053 1 121.05500710000001 107.297653589511 1.04689075 0 0 0
3054 1 119.350007 110.250800289511 1.04689075 0 0 0
3055 1 126.1700074 104.344536420978 1.04689075 0 0 0
3056 1 124.464990249999 107.297653589511 1.04689075 0 0 0
3057 1 122.75999014999901 110.250800289511 1.04689075 0 0 0
3058 1 121.05500710000001 113.203946989511 1.04689075 0 0 0
3059 1 119.350007 116.15712322097801 1.04689075 0 0 0
3060 2 129.580024650001 114.188348910489 1.04689075 0 0 0
3061 2 119.350007 108.282055510489 1.04689075 0 0 0
3062 2 124.46502435000102 105.328879279022 1.04689075 0 0 0
3063 2 122.76000720000002 108.282055510489 1.04689075 0 0 0
3064 2 121.055024150001 111.235202210489 1.04689075 0 0 0
3065 2 119.350007 114.188348910489 1.04689075 0 0 0
3066 1 134.69499084999902 95.48506678951101 1.04689075 0 0 0
3067 1 132.989990749999 98.438243020978 1.04689075 0 0 0
3068 1 131.284990649999 101.391360189511 1.04689075 0 0 0
3069 1 134.69499084999902 101.391360189511 1.04689075 0 0 0
3070 2 134.6950079 93.516292479022 1.04689075 0 0 0
3071 2 132.99002485000102 96.469439179022 1.04689075 0 0 0
3072 2 131.285024750001 99.422615410489 1.04689075 0 0 0
3073 2 129.580024650001 102.375732579022 1.04689075 0 0 0
3074 2 134.6950079 99.422615410489 1.04689075 0 0 0
3075 2 132.99002485000102 102.375732579022 1.04689075 0 0 0
3076 1 129.58000760000002 104.344536420978 1.04689075 0 0 0
3077 1 127.87499044999902 107.297653589511 1.04689075 0 0 0
3078 1 126.1700074 110.250800289511 1.04689075 0 0 0
3079 1 124.464990249999 113.203946989511 1.04689075 0 0 0
3080 1 122.75999014999901 116.15712322097801 1.04689075 0 0 0
3081 1 132.989990749999 104.344536420978 1.04689075 0 0 0
3082 1 131.284990649999 107.297653589511 1.04689075 0 0 0
3083 1 129.58000760000002 110.250800289511 1.04689075 0 0 0
3084 1 127.87499044999902 113.203946989511 1.04689075 0 0 0
3085 1 126.1700074 116.15712322097801 1.04689075 0 0 0
3086 1 134.69499084999902 107.297653589511 1.04689075 0 0 0
3087 1 132.989990749999 110.250800289511 1.04689075 0 0 0
3088 1 131.284990649999 113.203946989511 1.04689075 0 0 0
3089 1 129.58000760000002 116.15712322097801 1.04689075 0 0 0
3090 1 134.69499084999902 113.203946989511 1.04689075 0 0 0
3091 1 132.989990749999 116.15712322097801 1.04689075 0 0 0
3092 2 127.87500750000001 105.328879279022 1.04689075 0 0 0
3093 2 126.1700074 108.282055510489 1.04689075 0 0 0
3094 2 124.46502435000102 111.235202210489 1.04689075 0 0 0
3095 2 122.76000720000002 114.188348910489 1.04689075 0 0 0
3096 2 121.055024150001 117.14146607902201 1.04689075 0 0 0
3097 2 131.285024750001 105.328879279022 1.04689075 0 0 0
3098 2 129.580024650001 108.282055510489 1.04689075 0 0 0
3099 2 127.87500750000001 111.235202210489 1.04689075 0 0 0
3100 2 126.1700074 114.188348910489 1.04689075 0 0 0
3101 2 124.46502435000102 117.14146607902201 1.04689075 0 0 0
3102 2 134.6950079 105.328879279022 1.04689075 0 0 0
3103 2 132.99002485000102 108.282055510489 1.04689075 0 0 0
3104 2 131.285024750001 111.235202210489 1.04689075 0 0 0
3687 1 104.00500610000002 119.110269920978 1.04689075 0 0 0
3688 1 102.30000600000001 122.063387089511 1.04689075 0 0 0
3689 1 107.41498924999901 119.110269920978 1.04689075 0 0 0
3690 1 105.709989149999 122.063387089511 1.04689075 0 0 0
3691 1 104.00500610000002 125.016533789511 1.04689075 0 0 0
3692 1 102.30000600000001 127.969710020978 1.04689075 0 0 0
3693 1 110.82498944999901 119.110269920978 1.04689075 0 0 0
3694 1 109.12000640000001 122.063387089511 1.04689075 0 0 0
3695 1 107.41498924999901 125.016533789511 1.04689075 0 0 0
3696 1 105.709989149999 127.969710020978 1.04689075 0 0 0
3697 1 104.00500610000002 130.922827189511 1.04689075 0 0 0
3698 1 114.23498964999901 119.110269920978 1.04689075 0 0 0
3699 1 112.53000660000001 122.063387089511 1.04689075 0 0 0
3700 1 110.82498944999901 125.016533789511 1.04689075 0 0 0
3701 1 109.12000640000001 127.969710020978 1.04689075 0 0 0
3702 1 107.41498924999901 130.922827189511 1.04689075 0 0 0
3703 1 117.644989849999 119.110269920978 1.04689075 0 0 0
3704 1 115.93998974999901 122.063387089511 1.04689075 0 0 0
3705 1 114.23498964999901 125.016533789511 1.04689075 0 0 0
3706 1 112.53000660000001 127.969710020978 1.04689075 0 0 0
3707 1 110.82498944999901 130.922827189511 1.04689075 0 0 0
3708 2 102.30000600000001 120.094642310489 1.04689075 0 0 0
3709 2 105.71000620000001 120.094642310489 1.04689075 0 0 0
3710 2 104.00502315000101 123.04775947902199 1.04689075 0 0 0
3711 2 102.30000600000001 126.000906179022 1.04689075 0 0 0
3712 2 109.12000640000001 120.094642310489 1.04689075 0 0 0
3713 2 107.41502335000101 123.04775947902199 1.04689075 0 0 0
3714 2 105.71000620000001 126.000906179022 1.04689075 0 0 0
3715 2 104.00502315000101 128.954082410489 1.04689075 0 0 0
3716 2 102.30000600000001 131.907199579022 1.04689075 0 0 0
3717 2 112.53002365000101 120.094642310489 1.04689075 0 0 0
3718 2 110.82500650000001 123.04775947902199 1.04689075 0 0 0
3719 2 109.12000640000001 126.000906179022 1.04689075 0 0 0
3720 2 107.41502335000101 128.954082410489 1.04689075 0 0 0
3721 2 105.71000620000001 131.907199579022 1.04689075 0 0 0
3722 2 115.94002385000101 120.094642310489 1.04689075 0 0 0
3723 2 114.235023750001 123.04775947902199 1.04689075 0 0 0
3724 2 112.53002365000101 126.000906179022 1.04689075 0 0 0
3725 2 110.82500650000001 128.954082410489 1.04689075 0 0 0
3726 2 109.12000640000001 131.907199579022 1.04689075 0 0 0
3727 1 102.30000600000001 133.876003420978 1.04689075 0 0 0
3728 1 105.709989149999 133.876003420978 1.04689075 0 0 0
3729 1 104.00500610000002 136.829120589511 1.04689075 0 0 0
3730 1 102.30000600000001 139.782267289511 1.04689075 0 0 0
3731 1 109.12000640000001 133.876003420978 1.04689075 0 0 0
3732 1 107.41498924999901 136.829120589511 1.04689075 0 0 0
3733 1 105.709989149999 139.782267289511 1.04689075 0 0 0
3734 1 104.00500610000002 142.735413989511 1.04689075 0 0 0
3735 1 102.30000600000001 145.688590220978 1.04689075 0 0 0
3736 2 104.00502315000101 134.860346279022 1.04689075 0 0 0
3737 2 102.30000600000001 137.813522510489 1.04689075 0 0 0
3738 2 107.41502335000101 134.860346279022 1.04689075 0 0 0
3739 2 105.71000620000001 137.813522510489 1.04689075 0 0 0
3740 2 104.00502315000101 140.766669210489 1.04689075 0 0 0
3741 2 102.30000600000001 143.719815910489 1.04689075 0 0 0
3742 1 117.644989849999 125.016533789511 1.04689075 0 0 0
3743 1 115.93998974999901 127.969710020978 1.04689075 0 0 0
3744 1 114.23498964999901 130.922827189511 1.04689075 0 0 0
3745 2 134.6950079 146.672933079022 1.04689075 0 0 0
3746 2 117.64500690000001 123.04775947902199 1.04689075 0 0 0
3747 2 115.94002385000101 126.000906179022 1.04689075 0 0 0
3748 2 114.235023750001 128.954082410489 1.04689075 0 0 0
3749 2 112.53002365000101 131.907199579022 1.04689075 0 0 0
3750 2 117.64500690000001 128.954082410489 1.04689075 0 0 0
3751 2 115.94002385000101 131.907199579022 1.04689075 0 0 0
3752 1 112.53000660000001 133.876003420978 1.04689075 0 0 0
3753 1 110.82498944999901 136.829120589511 1.04689075 0 0 0
3754 1 109.12000640000001 139.782267289511 1.04689075 0 0 0
3755 1 107.41498924999901 142.735413989511 1.04689075 0 0 0
3756 1 105.709989149999 145.688590220978 1.04689075 0 0 0
3757 1 115.93998974999901 133.876003420978 1.04689075 0 0 0
3758 1 114.23498964999901 136.829120589511 1.04689075 0 0 0
3759 1 112.53000660000001 139.782267289511 1.04689075 0 0 0
3760 1 110.82498944999901 142.735413989511 1.04689075 0 0 0
3761 1 109.12000640000001 145.688590220978 1.04689075 0 0 0
3762 1 117.644989849999 136.829120589511 1.04689075 0 0 0
3763 1 115.93998974999901 139.782267289511 1.04689075 0 0 0
3764 1 114.23498964999901 142.735413989511 1.04689075 0 0 0
3765 1 112.53000660000001 145.688590220978 1.04689075 0 0 0
3766 1 117.644989849999 142.735413989511 1.04689075 0 0 0
3767 1 115.93998974999901 145.688590220978 1.04689075 0 0 0
3768 2 110.82500650000001 134.860346279022 1.04689075 0 0 0
3769 2 109.12000640000001 137.813522510489 1.04689075 0 0 0
3770 2 107.41502335000101 140.766669210489 1.04689075 0 0 0
3771 2 105.71000620000001 143.719815910489 1.04689075 0 0 0
3772 2 104.00502315000101 146.672933079022 1.04689075 0 0 0
3773 2 114.235023750001 134.860346279022 1.04689075 0 0 0
3774 2 112.53002365000101 137.813522510489 1.04689075 0 0 0
3775 2 110.82500650000001 140.766669210489 1.04689075 0 0 0
3776 2 109.12000640000001 143.719815910489 1.04689075 0 0 0
3777 2 107.41502335000101 146.672933079022 1.04689075 0 0 0
3778 2 131.285024750001 146.672933079022 1.04689075 0 0 0
3779 2 115.94002385000101 137.813522510489 1.04689075 0 0 0
3780 2 114.235023750001 140.766669210489 1.04689075 0 0 0
3781 2 112.53002365000101 143.719815910489 1.04689075 0 0 0
3782 2 110.82500650000001 146.672933079022 1.04689075 0 0 0
3783 2 117.64500690000001 140.766669210489 1.04689075 0 0 0
3784 2 115.94002385000101 143.719815910489 1.04689075 0 0 0
3785 2 114.235023750001 146.672933079022 1.04689075 0 0 0
3786 2 117.64500690000001 146.672933079022 1.04689075 0 0 0
3787 1 121.05500710000001 119.110269920978 1.04689075 0 0 0
3788 1 119.350007 122.063387089511 1.04689075 0 0 0
3789 1 124.464990249999 119.110269920978 1.04689075 0 0 0
3790 1 122.75999014999901 122.063387089511 1.04689075 0 0 0
3791 1 121.05500710000001 125.016533789511 1.04689075 0 0 0
3792 1 119.350007 127.969710020978 1.04689075 0 0 0
3793 1 127.87499044999902 119.110269920978 1.04689075 0 0 0
3794 1 126.1700074 122.063387089511 1.04689075 0 0 0
3795 1 124.464990249999 125.016533789511 1.04689075 0 0 0
3796 1 122.75999014999901 127.969710020978 1.04689075 0 0 0
3797 2 132.99002485000102 143.719815910489 1.04689075 0 0 0
3798 1 131.284990649999 119.110269920978 1.04689075 0 0 0
3799 1 129.58000760000002 122.063387089511 1.04689075 0 0 0
3800 1 127.87499044999902 125.016533789511 1.04689075 0 0 0
3801 1 126.1700074 127.969710020978 1.04689075 0 0 0
3802 1 124.464990249999 130.922827189511 1.04689075 0 0 0
3803 1 134.69499084999902 119.110269920978 1.04689075 0 0 0
3804 1 132.989990749999 122.063387089511 1.04689075 0 0 0
3805 1 131.284990649999 125.016533789511 1.04689075 0 0 0
3806 1 129.58000760000002 127.969710020978 1.04689075 0 0 0
3807 1 127.87499044999902 130.922827189511 1.04689075 0 0 0
3808 2 119.350007 120.094642310489 1.04689075 0 0 0
3809 2 122.76000720000002 120.094642310489 1.04689075 0 0 0
3810 2 121.055024150001 123.04775947902199 1.04689075 0 0 0
3811 2 119.350007 126.000906179022 1.04689075 0 0 0
3812 2 126.1700074 120.094642310489 1.04689075 0 0 0
3813 2 124.46502435000102 123.04775947902199 1.04689075 0 0 0
3814 2 122.76000720000002 126.000906179022 1.04689075 0 0 0
3815 2 121.055024150001 128.954082410489 1.04689075 0 0 0
3816 2 134.6950079 140.766669210489 1.04689075 0 0 0
3817 2 129.580024650001 120.094642310489 1.04689075 0 0 0
3818 2 127.87500750000001 123.04775947902199 1.04689075 0 0 0
3819 2 126.1700074 126.000906179022 1.04689075 0 0 0
3820 2 124.46502435000102 128.954082410489 1.04689075 0 0 0
3821 2 122.76000720000002 131.907199579022 1.04689075 0 0 0
3822 2 132.99002485000102 120.094642310489 1.04689075 0 0 0
3823 2 131.285024750001 123.04775947902199 1.04689075 0 0 0
3824 2 129.580024650001 126.000906179022 1.04689075 0 0 0
3825 2 127.87500750000001 128.954082410489 1.04689075 0 0 0
3826 2 126.1700074 131.907199579022 1.04689075 0 0 0
3827 2 127.87500750000001 146.672933079022 1.04689075 0 0 0
3828 1 122.75999014999901 133.876003420978 1.04689075 0 0 0
3829 1 121.05500710000001 136.829120589511 1.04689075 0 0 0
3830 1 119.350007 139.782267289511 1.04689075 0 0 0
3831 1 126.1700074 133.876003420978 1.04689075 0 0 0
3832 1 124.464990249999 136.829120589511 1.04689075 0 0 0
3833 1 122.75999014999901 139.782267289511 1.04689075 0 0 0
3834 1 121.05500710000001 142.735413989511 1.04689075 0 0 0
3835 1 119.350007 145.688590220978 1.04689075 0 0 0
3836 2 129.580024650001 143.719815910489 1.04689075 0 0 0
3837 2 119.350007 137.813522510489 1.04689075 0 0 0
3838 2 124.46502435000102 134.860346279022 1.04689075 0 0 0
3839 2 122.76000720000002 137.813522510489 1.04689075 0 0 0
3840 2 121.055024150001 140.766669210489 1.04689075 0 0 0
3841 2 119.350007 143.719815910489 1.04689075 0 0 0
3842 1 134.69499084999902 125.016533789511 1.04689075 0 0 0
3843 1 132.989990749999 127.969710020978 1.04689075 0 0 0
3844 1 131.284990649999 130.922827189511 1.04689075 0 0 0
3845 1 134.69499084999902 130.922827189511 1.04689075 0 0 0
3846 2 134.6950079 123.04775947902199 1.04689075 0 0 0
3847 2 132.99002485000102 126.000906179022 1.04689075 0 0 0
3848 2 131.285024750001 128.954082410489 1.04689075 0 0 0
3849 2 129.580024650001 131.907199579022 1.04689075 0 0 0
3850 2 134.6950079 128.954082410489 1.04689075 0 0 0
3851 2 132.99002485000102 131.907199579022 1.04689075 0 0 0
3852 1 129.58000760000002 133.876003420978 1.04689075 0 0 0
3853 1 127.87499044999902 136.829120589511 1.04689075 0 0 0
3854 1 126.1700074 139.782267289511 1.04689075 0 0 0
3855 1 124.464990249999 142.735413989511 1.04689075 0 0 0
3856 1 122.75999014999901 145.688590220978 1.04689075 0 0 0
3857 1 132.989990749999 133.876003420978 1.04689075 0 0 0
3858 1 131.284990649999 136.829120589511 1.04689075 0 0 0
3859 1 129.58000760000002 139.782267289511 1.04689075 0 0 0
3860 1 127.87499044999902 142.735413989511 1.04689075 0 0 0
3861 1 126.1700074 145.688590220978 1.04689075 0 0 0
3862 1 134.69499084999902 136.829120589511 1.04689075 0 0 0
3863 1 132.989990749999 139.782267289511 1.04689075 0 0 0
3864 1 131.284990649999 142.735413989511 1.04689075 0 0 0
3865 1 129.58000760000002 145.688590220978 1.04689075 0 0 0
3866 1 134.69499084999902 142.735413989511 1.04689075 0 0 0
3867 1 132.989990749999 145.688590220978 1.04689075 0 0 0
3868 2 127.87500750000001 134.860346279022 1.04689075 0 0 0
3869 2 126.1700074 137.813522510489 1.04689075 0 0 0
3870 2 124.46502435000102 140.766669210489 1.04689075 0 0 0
3871 2 122.76000720000002 143.719815910489 1.04689075 0 0 0
3872 2 121.055024150001 146.672933079022 1.04689075 0 0 0
3873 2 131.285024750001 134.860346279022 1.04689075 0 0 0
3874 2 129.580024650001 137.813522510489 1.04689075 0 0 0
3875 2 127.87500750000001 140.766669210489 1.04689075 0 0 0
3876 2 126.1700074 143.719815910489 1.04689075 0 0 0
3877 2 124.46502435000102 146.672933079022 1.04689075 0 0 0
3878 2 134.6950079 134.860346279022 1.04689075 0 0 0
3879 2 132.99002485000102 137.813522510489 1.04689075 0 0 0
3880 2 131.285024750001 140.766669210489 1.04689075 0 0 0
4463 1 104.00500610000002 148.641736920978 1.04689075 0 0 0
4464 1 102.30000600000001 151.594854089511 1.04689075 0 0 0
4465 1 107.41498924999901 148.641736920978 1.04689075 0 0 0
4466 1 105.709989149999 151.594854089511 1.04689075 0 0 0
4467 1 104.00500610000002 154.54800078951098 1.04689075 0 0 0
4468 1 102.30000600000001 157.501177020978 1.04689075 0 0 0
4469 1 110.82498944999901 148.641736920978 1.04689075 0 0 0
4470 1 109.12000640000001 151.594854089511 1.04689075 0 0 0
4471 1 107.41498924999901 154.54800078951098 1.04689075 0 0 0
4472 1 105.709989149999 157.501177020978 1.04689075 0 0 0
4473 1 104.00500610000002 160.454294189511 1.04689075 0 0 0
4474 1 114.23498964999901 148.641736920978 1.04689075 0 0 0
4475 1 112.53000660000001 151.594854089511 1.04689075 0 0 0
4476 1 110.82498944999901 154.54800078951098 1.04689075 0 0 0
4477 1 109.12000640000001 157.501177020978 1.04689075 0 0 0
4478 1 107.41498924999901 160.454294189511 1.04689075 0 0 0
4479 1 117.644989849999 148.641736920978 1.04689075 0 0 0
4480 1 115.93998974999901 151.594854089511 1.04689075 0 0 0
4481 1 114.23498964999901 154.54800078951098 1.04689075 0 0 0
4482 1 112.53000660000001 157.501177020978 1.04689075 0 0 0
4483 1 110.82498944999901 160.454294189511 1.04689075 0 0 0
4484 2 102.30000600000001 149.626109310489 1.04689075 0 0 0
4485 2 105.71000620000001 149.626109310489 1.04689075 0 0 0
4486 2 104.00502315000101 152.579226479022 1.04689075 0 0 0
4487 2 102.30000600000001 155.532373179022 1.04689075 0 0 0
4488 2 109.12000640000001 149.626109310489 1.04689075 0 0 0
4489 2 107.41502335000101 152.579226479022 1.04689075 0 0 0
4490 2 105.71000620000001 155.532373179022 1.04689075 0 0 0
4491 2 104.00502315000101 158.485549410489 1.04689075 0 0 0
4492 2 102.30000600000001 161.438666579022 1.04689075 0 0 0
4493 2 112.53002365000101 149.626109310489 1.04689075 0 0 0
4494 2 110.82500650000001 152.579226479022 1.04689075 0 0 0
4495 2 109.12000640000001 155.532373179022 1.04689075 0 0 0
4496 2 107.41502335000101 158.485549410489 1.04689075 0 0 0
4497 2 105.71000620000001 161.438666579022 1.04689075 0 0 0
4498 2 115.94002385000101 149.626109310489 1.04689075 0 0 0
4499 2 114.235023750001 152.579226479022 1.04689075 0 0 0
4500 2 112.53002365000101 155.532373179022 1.04689075 0 0 0
4501 2 110.82500650000001 158.485549410489 1.04689075 0 0 0
4502 2 109.12000640000001 161.438666579022 1.04689075 0 0 0
4503 1 102.30000600000001 163.407470420978 1.04689075 0 0 0
4504 1 105.709989149999 163.407470420978 1.04689075 0 0 0
4505 1 104.00500610000002 166.360587589511 1.04689075 0 0 0
4506 1 102.30000600000001 169.313734289511 1.04689075 0 0 0
4507 1 109.12000640000001 163.407470420978 1.04689075 0 0 0
4508 1 107.41498924999901 166.360587589511 1.04689075 0 0 0
4509 1 105.709989149999 169.313734289511 1.04689075 0 0 0
4510 1 104.00500610000002 172.26688098951098 1.04689075 0 0 0
4511 1 102.30000600000001 175.220057220978 1.04689075 0 0 0
4512 2 104.00502315000101 164.391813279022 1.04689075 0 0 0
4513 2 102.30000600000001 167.344989510489 1.04689075 0 0 0
4514 2 107.41502335000101 164.391813279022 1.04689075 0 0 0
4515 2 105.71000620000001 167.344989510489 1.04689075 0 0 0
4516 2 104.00502315000101 170.298136210489 1.04689075 0 0 0
4517 2 102.30000600000001 173.25128291048898 1.04689075 0 0 0
4518 1 117.644989849999 154.54800078951098 1.04689075 0 0 0
4519 1 115.93998974999901 157.501177020978 1.04689075 0 0 0
4520 1 114.23498964999901 160.454294189511 1.04689075 0 0 0
4521 2 134.6950079 176.20440007902198 1.04689075 0 0 0
4522 2 117.64500690000001 152.579226479022 1.04689075 0 0 0
4523 2 115.94002385000101 155.532373179022 1.04689075 0 0 0
4524 2 114.235023750001 158.485549410489 1.04689075 0 0 0
4525 2 112.53002365000101 161.438666579022 1.04689075 0 0 0
4526 2 117.64500690000001 158.485549410489 1.04689075 0 0 0
4527 2 115.94002385000101 161.438666579022 1.04689075 0 0 0
4528 1 112.53000660000001 163.407470420978 1.04689075 0 0 0
4529 1 110.82498944999901 166.360587589511 1.04689075 0 0 0
4530 1 109.12000640000001 169.313734289511 1.04689075 0 0 0
4531 1 107.41498924999901 172.26688098951098 1.04689075 0 0 0
4532 1 105.709989149999 175.220057220978 1.04689075 0 0 0
4533 1 115.93998974999901 163.407470420978 1.04689075 0 0 0
4534 1 114.23498964999901 166.360587589511 1.04689075 0 0 0
4535 1 112.53000660000001 169.313734289511 1.04689075 0 0 0
4536 1 110.82498944999901 172.26688098951098 1.04689075 0 0 0
4537 1 109.12000640000001 175.220057220978 1.04689075 0 0 0
4538 1 117.644989849999 166.360587589511 1.04689075 0 0 0
4539 1 115.93998974999901 169.313734289511 1.04689075 0 0 0
4540 1 114.23498964999901 172.26688098951098 1.04689075 0 0 0
4541 1 112.53000660000001 175.220057220978 1.04689075 0 0 0
4542 1 117.644989849999 172.26688098951098 1.04689075 0 0 0
4543 1 115.93998974999901 175.220057220978 1.04689075 0 0 0
4544 2 110.82500650000001 164.391813279022 1.04689075 0 0 0
4545 2 109.12000640000001 167.344989510489 1.04689075 0 0 0
4546 2 107.41502335000101 170.298136210489 1.04689075 0 0 0
4547 2 105.71000620000001 173.25128291048898 1.04689075 0 0 0
4548 2 104.00502315000101 176.20440007902198 1.04689075 0 0 0
4549 2 114.235023750001 164.391813279022 1.04689075 0 0 0
4550 2 112.53002365000101 167.344989510489 1.04689075 0 0 0
4551 2 110.82500650000001 170.298136210489 1.04689075 0 0 0
4552 2 109.12000640000001 173.25128291048898 1.04689075 0 0 0
4553 2 107.41502335000101 176.20440007902198 1.04689075 0 0 0
4554 2 131.285024750001 176.20440007902198 1.04689075 0 0 0
4555 2 115.94002385000101 167.344989510489 1.04689075 0 0 0
4556 2 114.235023750001 170.298136210489 1.04689075 0 0 0
4557 2 112.53002365000101 173.25128291048898 1.04689075 0 0 0
4558 2 110.82500650000001 176.20440007902198 1.04689075 0 0 0
4559 2 117.64500690000001 170.298136210489 1.04689075 0 0 0
4560 2 115.94002385000101 173.25128291048898 1.04689075 0 0 0
4561 2 114.235023750001 176.20440007902198 1.04689075 0 0 0
4562 2 117.64500690000001 176.20440007902198 1.04689075 0 0 0
4563 1 121.05500710000001 148.641736920978 1.04689075 0 0 0
4564 1 119.350007 151.594854089511 1.04689075 0 0 0
4565 1 124.464990249999 148.641736920978 1.04689075 0 0 0
4566 1 122.75999014999901 151.594854089511 1.04689075 0 0 0
4567 1 121.05500710000001 154.54800078951098 1.04689075 0 0 0
4568 1 119.350007 157.501177020978 1.04689075 0 0 0
4569 1 127.87499044999902 148.641736920978 1.04689075 0 0 0
4570 1 126.1700074 151.594854089511 1.04689075 0 0 0
4571 1 124.464990249999 154.54800078951098 1.04689075 0 0 0
4572 1 122.75999014999901 157.501177020978 1.04689075 0 0 0
4573 2 132.99002485000102 173.25128291048898 1.04689075 0 0 0
4574 1 131.284990649999 148.641736920978 1.04689075 0 0 0
4575 1 129.58000760000002 151.594854089511 1.04689075 0 0 0
4576 1 127.87499044999902 154.54800078951098 1.04689075 0 0 0
4577 1 126.1700074 157.501177020978 1.04689075 0 0 0
4578 1 124.464990249999 160.454294189511 1.04689075 0 0 0
4579 1 134.69499084999902 148.641736920978 1.04689075 0 0 0
4580 1 132.989990749999 151.594854089511 1.04689075 0 0 0
4581 1 131.284990649999 154.54800078951098 1.04689075 0 0 0
4582 1 129.58000760000002 157.501177020978 1.04689075 0 0 0
4583 1 127.87499044999902 160.454294189511 1.04689075 0 0 0
4584 2 119.350007 149.626109310489 1.04689075 0 0 0
4585 2 122.76000720000002 149.626109310489 1.04689075 0 0 0
4586 2 121.055024150001 152.579226479022 1.04689075 0 0 0
4587 2 119.350007 155.532373179022 1.04689075 0 0 0
4588 2 126.1700074 149.626109310489 1.04689075 0 0 0
4589 2 124.46502435000102 152.579226479022 1.04689075 0 0 0
4590 2 122.76000720000002 155.532373179022 1.04689075 0 0 0
4591 2 121.055024150001 158.485549410489 1.04689075 0 0 0
4592 2 134.6950079 170.298136210489 1.04689075 0 0 0
4593 2 129.580024650001 149.626109310489 1.04689075 0 0 0
4594 2 127.87500750000001 152.579226479022 1.04689075 0 0 0
4595 2 126.1700074 155.532373179022 1.04689075 0 0 0
4596 2 124.46502435000102 158.485549410489 1.04689075 0 0 0
4597 2 122.76000720000002 161.438666579022 1.04689075 0 0 0
4598 2 132.99002485000102 149.626109310489 1.04689075 0 0 0
4599 2 131.285024750001 152.579226479022 1.04689075 0 0 0
4600 2 129.580024650001 155.532373179022 1.04689075 0 0 0
4601 2 127.87500750000001 158.485549410489 1.04689075 0 0 0
4602 2 126.1700074 161.438666579022 1.04689075 0 0 0
4603 2 127.87500750000001 176.20440007902198 1.04689075 0 0 0
4604 1 122.75999014999901 163.407470420978 1.04689075 0 0 0
4605 1 121.05500710000001 166.360587589511 1.04689075 0 0 0
4606 1 119.350007 169.313734289511 1.04689075 0 0 0
4607 1 126.1700074 163.407470420978 1.04689075 0 0 0
4608 1 124.464990249999 166.360587589511 1.04689075 0 0 0
4609 1 122.75999014999901 169.313734289511 1.04689075 0 0 0
4610 1 121.05500710000001 172.26688098951098 1.04689075 0 0 0
4611 1 119.350007 175.220057220978 1.04689075 0 0 0
4612 2 129.580024650001 173.25128291048898 1.04689075 0 0 0
4613 2 119.350007 167.344989510489 1.04689075 0 0 0
4614 2 124.46502435000102 164.391813279022 1.04689075 0 0 0
4615 2 122.76000720000002 167.344989510489 1.04689075 0 0 0
4616 2 121.055024150001 170.298136210489 1.04689075 0 0 0
4617 2 119.350007 173.25128291048898 1.04689075 0 0 0
4618 1 134.69499084999902 154.54800078951098 1.04689075 0 0 0
4619 1 132.989990749999 157.501177020978 1.04689075 0 0 0
4620 1 131.284990649999 160.454294189511 1.04689075 0 0 0
4621 1 134.69499084999902 160.454294189511 1.04689075 0 0 0
4622 2 134.6950079 152.579226479022 1.04689075 0 0 0
4623 2 132.99002485000102 155.532373179022 1.04689075 0 0 0
4624 2 131.285024750001 158.485549410489 1.04689075 0 0 0
4625 2 129.580024650001 161.438666579022 1.04689075 0 0 0
4626 2 134.6950079 158.485549410489 1.04689075 0 0 0
4627 2 132.99002485000102 161.438666579022 1.04689075 0 0 0
4628 1 129.58000760000002 163.407470420978 1.04689075 0 0 0
4629 1 127.87499044999902 166.360587589511 1.04689075 0 0 0
4630 1 126.1700074 169.313734289511 1.04689075 0 0 0
4631 1 124.464990249999 172.26688098951098 1.04689075 0 0 0
4632 1 122.75999014999901 175.220057220978 1.04689075 0 0 0
4633 1 132.989990749999 163.407470420978 1.04689075 0 0 0
4634 1 131.284990649999 166.360587589511 1.04689075 0 0 0
4635 1 129.58000760000002 169.313734289511 1.04689075 0 0 0
4636 1 127.87499044999902 172.26688098951098 1.04689075 0 0 0
4637 1 126.1700074 175.220057220978 1.04689075 0 0 0
4638 1 134.69499084999902 166.360587589511 1.04689075 0 0 0
4639 1 132.989990749999 169.313734289511 1.04689075 0 0 0
4640 1 131.284990649999 172.26688098951098 1.04689075 0 0 0
4641 1 129.58000760000002 175.220057220978 1.04689075 0 0 0
4642 1 134.69499084999902 172.26688098951098 1.04689075 0 0 0
4643 1 132.989990749999 175.220057220978 1.04689075 0 0 0
4644 2 127.87500750000001 164.391813279022 1.04689075 0 0 0
4645 2 126.1700074 167.344989510489 1.04689075 0 0 0
4646 2 124.46502435000102 170.298136210489 1.04689075 0 0 0
4647 2 122.76000720000002 173.25128291048898 1.04689075 0 0 0
4648 2 121.055024150001 176.20440007902198 1.04689075 0 0 0
4649 2 131.285024750001 164.391813279022 1.04689075 0 0 0
4650 2 129.580024650001 167.344989510489 1.04689075 0 0 0
4651 2 127.87500750000001 170.298136210489 1.04689075 0 0 0
4652 2 126.1700074 173.25128291048898 1.04689075 0 0 0
4653 2 124.46502435000102 176.20440007902198 1.04689075 0 0 0
4654 2 134.6950079 164.391813279022 1.04689075 0 0 0
4655 2 132.99002485000102 167.344989510489 1.04689075 0 0 0
4656 2 131.285024750001 170.298136210489 1.04689075 0 0 0
5239 1 104.00500610000002 178.173203920978 1.04689075 0 0 0
5240 1 102.30000600000001 181.126321089511 1.04689075 0 0 0
5241 1 107.41498924999901 178.173203920978 1.04689075 0 0 0
5242 1 105.709989149999 181.126321089511 1.04689075 0 0 0
5243 1 104.00500610000002 184.079467789511 1.04689075 0 0 0
5244 1 102.30000600000001 187.032644020978 1.04689075 0 0 0
5245 1 110.82498944999901 178.173203920978 1.04689075 0 0 0
5246 1 109.12000640000001 181.126321089511 1.04689075 0 0 0
5247 1 107.41498924999901 184.079467789511 1.04689075 0 0 0
5248 1 105.709989149999 187.032644020978 1.04689075 0 0 0
5249 1 104.00500610000002 189.985761189511 1.04689075 0 0 0
5250 1 114.23498964999901 178.173203920978 1.04689075 0 0 0
5251 1 112.53000660000001 181.126321089511 1.04689075 0 0 0
5252 1 110.82498944999901 184.079467789511 1.04689075 0 0 0
5253 1 109.12000640000001 187.032644020978 1.04689075 0 0 0
5254 1 107.41498924999901 189.985761189511 1.04689075 0 0 0
5255 1 117.644989849999 178.173203920978 1.04689075 0 0 0
5256 1 115.93998974999901 181.126321089511 1.04689075 0 0 0
5257 1 114.23498964999901 184.079467789511 1.04689075 0 0 0
5258 1 112.53000660000001 187.032644020978 1.04689075 0 0 0
5259 1 110.82498944999901 189.985761189511 1.04689075 0 0 0
5260 2 102.30000600000001 179.15757631048902 1.04689075 0 0 0
5261 2 105.71000620000001 179.15757631048902 1.04689075 0 0 0
5262 2 104.00502315000101 182.11069347902202 1.04689075 0 0 0
5263 2 102.30000600000001 185.063840179022 1.04689075 0 0 0
5264 2 109.12000640000001 179.15757631048902 1.04689075 0 0 0
5265 2 107.41502335000101 182.11069347902202 1.04689075 0 0 0
5266 2 105.71000620000001 185.063840179022 1.04689075 0 0 0
5267 2 104.00502315000101 188.01701641048902 1.04689075 0 0 0
5268 2 102.30000600000001 190.97013357902202 1.04689075 0 0 0
5269 2 112.53002365000101 179.15757631048902 1.04689075 0 0 0
5270 2 110.82500650000001 182.11069347902202 1.04689075 0 0 0
5271 2 109.12000640000001 185.063840179022 1.04689075 0 0 0
5272 2 107.41502335000101 188.01701641048902 1.04689075 0 0 0
5273 2 105.71000620000001 190.97013357902202 1.04689075 0 0 0
5274 2 115.94002385000101 179.15757631048902 1.04689075 0 0 0
5275 2 114.235023750001 182.11069347902202 1.04689075 0 0 0
5276 2 112.53002365000101 185.063840179022 1.04689075 0 0 0
5277 2 110.82500650000001 188.01701641048902 1.04689075 0 0 0
5278 2 109.12000640000001 190.97013357902202 1.04689075 0 0 0
5279 1 102.30000600000001 192.93893742097802 1.04689075 0 0 0
5280 1 105.709989149999 192.93893742097802 1.04689075 0 0 0
5281 1 104.00500610000002 195.89205458951102 1.04689075 0 0 0
5282 1 102.30000600000001 198.845201289511 1.04689075 0 0 0
5283 1 109.12000640000001 192.93893742097802 1.04689075 0 0 0
5284 1 107.41498924999901 195.89205458951102 1.04689075 0 0 0
5285 1 105.709989149999 198.845201289511 1.04689075 0 0 0
5286 1 104.00500610000002 201.798347989511 1.04689075 0 0 0
5287 1 102.30000600000001 204.751524220978 1.04689075 0 0 0
5288 2 104.00502315000101 193.923280279022 1.04689075 0 0 0
5289 2 102.30000600000001 196.87645651048902 1.04689075 0 0 0
5290 2 107.41502335000101 193.923280279022 1.04689075 0 0 0
5291 2 105.71000620000001 196.87645651048902 1.04689075 0 0 0
5292 2 104.00502315000101 199.829603210489 1.04689075 0 0 0
5293 2 102.30000600000001 202.782749910489 1.04689075 0 0 0
5294 1 117.644989849999 184.079467789511 1.04689075 0 0 0
5295 1 115.93998974999901 187.032644020978 1.04689075 0 0 0
5296 1 114.23498964999901 189.985761189511 1.04689075 0 0 0
5297 2 134.6950079 205.735867079022 1.04689075 0 0 0
5298 2 117.64500690000001 182.11069347902202 1.04689075 0 0 0
5299 2 115.94002385000101 185.063840179022 1.04689075 0 0 0
5300 2 114.235023750001 188.01701641048902 1.04689075 0 0 0
5301 2 112.53002365000101 190.97013357902202 1.04689075 0 0 0
5302 2 117.64500690000001 188.01701641048902 1.04689075 0 0 0
5303 2 115.94002385000101 190.97013357902202 1.04689075 0 0 0
5304 1 112.53000660000001 192.93893742097802 1.04689075 0 0 0
5305 1 110.82498944999901 195.89205458951102 1.04689075 0 0 0
5306 1 109.12000640000001 198.845201289511 1.04689075 0 0 0
5307 1 107.41498924999901 201.798347989511 1.04689075 0 0 0
5308 1 105.709989149999 204.751524220978 1.04689075 0 0 0
5309 1 115.93998974999901 192.93893742097802 1.04689075 0 0 0
5310 1 114.23498964999901 195.89205458951102 1.04689075 0 0 0
5311 1 112.53000660000001 198.845201289511 1.04689075 0 0 0
5312 1 110.82498944999901 201.798347989511 1.04689075 0 0 0
5313 1 109.12000640000001 204.751524220978 1.04689075 0 0 0
5314 1 117.644989849999 195.89205458951102 1.04689075 0 0 0
5315 1 115.93998974999901 198.845201289511 1.04689075 0 0 0
5316 1 114.23498964999901 201.798347989511 1.04689075 0 0 0
5317 1 112.53000660000001 204.751524220978 1.04689075 0 0 0
5318 1 117.644989849999 201.798347989511 1.04689075 0 0 0
5319 1 115.93998974999901 204.751524220978 1.04689075 0 0 0
5320 2 110.82500650000001 193.923280279022 1.04689075 0 0 0
5321 2 109.12000640000001 196.87645651048902 1.04689075 0 0 0
5322 2 107.41502335000101 199.829603210489 1.04689075 0 0 0
5323 2 105.71000620000001 202.782749910489 1.04689075 0 0 0
5324 2 104.00502315000101 205.735867079022 1.04689075 0 0 0
5325 2 114.235023750001 193.923280279022 1.04689075 0 0 0
5326 2 112.53002365000101 196.87645651048902 1.04689075 0 0 0
5327 2 110.82500650000001 199.829603210489 1.04689075 0 0 0
5328 2 109.12000640000001 202.782749910489 1.04689075 0 0 0
5329 2 107.41502335000101 205.735867079022 1.04689075 0 0 0
5330 2 131.285024750001 205.735867079022 1.04689075 0 0 0
5331 2 115.94002385000101 196.87645651048902 1.04689075 0 0 0
5332 2 114.235023750001 199.829603210489 1.04689075 0 0 0
5333 2 112.53002365000101 202.782749910489 1.04689075 0 0 0
5334 2 110.82500650000001 205.735867079022 1.04689075 0 0 0
5335 2 117.64500690000001 199.829603210489 1.04689075 0 0 0
5336 2 115.94002385000101 202.782749910489 1.04689075 0 0 0
5337 2 114.235023750001 205.735867079022 1.04689075 0 0 0
5338 2 117.64500690000001 205.735867079022 1.04689075 0 0 0
5339 1 121.05500710000001 178.173203920978 1.04689075 0 0 0
5340 1 119.350007 181.126321089511 1.04689075 0 0 0
5341 1 124.464990249999 178.173203920978 1.04689075 0 0 0
5342 1 122.75999014999901 181.126321089511 1.04689075 0 0 0
5343 1 121.05500710000001 184.079467789511 1.04689075 0 0 0
5344 1 119.350007 187.032644020978 1.04689075 0 0 0
5345 1 127.87499044999902 178.173203920978 1.04689075 0 0 0
5346 1 126.1700074 181.126321089511 1.04689075 0 0 0
5347 1 124.464990249999 184.079467789511 1.04689075 0 0 0
5348 1 122.75999014999901 187.032644020978 1.04689075 0 0 0
5349 2 132.99002485000102 202.782749910489 1.04689075 0 0 0
5350 1 131.284990649999 178.173203920978 1.04689075 0 0 0
5351 1 129.58000760000002 181.126321089511 1.04689075 0 0 0
5352 1 127.87499044999902 184.079467789511 1.04689075 0 0 0
5353 1 126.1700074 187.032644020978 1.04689075 0 0 0
5354 1 124.464990249999 189.985761189511 1.04689075 0 0 0
5355 1 134.69499084999902 178.173203920978 1.04689075 0 0 0
5356 1 132.989990749999 181.126321089511 1.04689075 0 0 0
5357 1 131.284990649999 184.079467789511 1.04689075 0 0 0
5358 1 129.58000760000002 187.032644020978 1.04689075 0 0 0
5359 1 127.87499044999902 189.985761189511 1.04689075 0 0 0
5360 2 119.350007 179.15757631048902 1.04689075 0 0 0
5361 2 122.76000720000002 179.15757631048902 1.04689075 0 0 0
5362 2 121.055024150001 182.11069347902202 1.04689075 0 0 0
5363 2 119.350007 185.063840179022 1.04689075 0 0 0
5364 2 126.1700074 179.15757631048902 1.04689075 0 0 0
5365 2 124.46502435000102 182.11069347902202 1.04689075 0 0 0
5366 2 122.76000720000002 185.063840179022 1.04689075 0 0 0
5367 2 121.055024150001 188.01701641048902 1.04689075 0 0 0
5368 2 134.6950079 199.829603210489 1.04689075 0 0 0
5369 2 129.580024650001 179.15757631048902 1.04689075 0 0 0
5370 2 127.87500750000001 182.11069347902202 1.04689075 0 0 0
5371 2 126.1700074 185.063840179022 1.04689075 0 0 0
5372 2 124.46502435000102 188.01701641048902 1.04689075 0 0 0
5373 2 122.76000720000002 190.97013357902202 1.04689075 0 0 0
5374 2 132.99002485000102 179.15757631048902 1.04689075 0 0 0
5375 2 131.285024750001 182.11069347902202 1.04689075 0 0 0
5376 2 129.580024650001 185.063840179022 1.04689075 0 0 0
5377 2 127.87500750000001 188.01701641048902 1.04689075 0 0 0
5378 2 126.1700074 190.97013357902202 1.04689075 0 0 0
5379 2 127.87500750000001 205.735867079022 1.04689075 0 0 0
5380 1 122.75999014999901 192.93893742097802 1.04689075 0 0 0
5381 1 121.05500710000001 195.89205458951102 1.04689075 0 0 0
5382 1 119.350007 198.845201289511 1.04689075 0 0 0
5383 1 126.1700074 192.93893742097802 1.04689075 0 0 0
5384 1 124.464990249999 195.89205458951102 1.04689075 0 0 0
5385 1 122.75999014999901 198.845201289511 1.04689075 0 0 0
5386 1 121.05500710000001 201.798347989511 1.04689075 0 0 0
5387 1 119.350007 204.751524220978 1.04689075 0 0 0
5388 2 129.580024650001 202.782749910489 1.04689075 0 0 0
5389 2 119.350007 196.87645651048902 1.04689075 0 0 0
5390 2 124.46502435000102 193.923280279022 1.04689075 0 0 0
5391 2 122.76000720000002 196.87645651048902 1.04689075 0 0 0
5392 2 121.055024150001 199.829603210489 1.04689075 0 0 0
5393 2 119.350007 202.782749910489 1.04689075 0 0 0
5394 1 134.69499084999902 184.079467789511 1.04689075 0 0 0
5395 1 132.989990749999 187.032644020978 1.04689075 0 0 0
5396 1 131.284990649999 189.985761189511 1.04689075 0 0 0
5397 1 134.69499084999902 189.985761189511 1.04689075 0 0 0
5398 2 134.6950079 182.11069347902202 1.04689075 0 0 0
5399 2 132.99002485000102 185.063840179022 1.04689075 0 0 0
5400 2 131.285024750001 188.01701641048902 1.04689075 0 0 0
5401 2 129.580024650001 190.97013357902202 1.04689075 0 0 0
5402 2 134.6950079 188.01701641048902 1.04689075 0 0 0
5403 2 132.99002485000102 190.97013357902202 1.04689075 0 0 0
5404 1 129.58000760000002 192.93893742097802 1.04689075 0 0 0
5405 1 127.87499044999902 195.89205458951102 1.04689075 0 0 0
5406 1 126.1700074 198.845201289511 1.04689075 0 0 0
5407 1 124.464990249999 201.798347989511 1.04689075 0 0 0
5408 1 122.75999014999901 204.751524220978 1.04689075 0 0 0
5409 1 132.989990749999 192.93893742097802 1.04689075 0 0 0
5410 1 131.284990649999 195.89205458951102 1.04689075 0 0 0
5411 1 129.58000760000002 198.845201289511 1.04689075 0 0 0
5412 1 127.87499044999902 201.798347989511 1.04689075 0 0 0
5413 1 126.1700074 204.751524220978 1.04689075 0 0 0
5414 1 134.69499084999902 195.89205458951102 1.04689075 0 0 0
5415 1 132.989990749999 198.845201289511 1.04689075 0 0 0
5416 1 131.284990649999 201.798347989511 1.04689075 0 0 0
5417 1 129.58000760000002 204.751524220978 1.04689075 0 0 0
5418 1 134.69499084999902 201.798347989511 1.04689075 0 0 0
5419 1 132.989990749999 204.751524220978 1.04689075 0 0 0
5420 2 127.87500750000001 193.923280279022 1.04689075 0 0 0
5421 2 126.1700074 196.87645651048902 1.04689075 0 0 0
5422 2 124.46502435000102 199.829603210489 1.04689075 0 0 0
5423 2 122.76000720000002 202.782749910489 1.04689075 0 0 0
5424 2 121.055024150001 205.735867079022 1.04689075 0 0 0
5425 2 131.285024750001 193.923280279022 1.04689075 0 0 0
5426 2 129.580024650001 196.87645651048902 1.04689075 0 0 0
5427 2 127.87500750000001 199.829603210489 1.04689075 0 0 0
5428 2 126.1700074 202.782749910489 1.04689075 0 0 0
5429 2 124.46502435000102 205.735867079022 1.04689075 0 0 0
5430 2 134.6950079 193.923280279022 1.04689075 0 0 0
5431 2 132.99002485000102 196.87645651048902 1.04689075 0 0 0
5432 2 131.285024750001 199.829603210489 1.04689075 0 0 0
6015 1 104.00500610000002 207.704670920978 1.04689075 0 0 0
6016 1 102.30000600000001 210.657788089511 1.04689075 0 0 0
6017 1 107.41498924999901 207.704670920978 1.04689075 0 0 0
6018 1 105.709989149999 210.657788089511 1.04689075 0 0 0
6019 1 104.00500610000002 213.610934789511 1.04689075 0 0 0
6020 1 102.30000600000001 216.564111020978 1.04689075 0 0 0
6021 1 110.82498944999901 207.704670920978 1.04689075 0 0 0
6022 1 109.12000640000001 210.657788089511 1.04689075 0 0 0
6023 1 107.41498924999901 213.610934789511 1.04689075 0 0 0
6024 1 105.709989149999 216.564111020978 1.04689075 0 0 0
6025 1 104.00500610000002 219.517228189511 1.04689075 0 0 0
6026 1 114.23498964999901 207.704670920978 1.04689075 0 0 0
6027 1 112.53000660000001 210.657788089511 1.04689075 0 0 0
6028 1 110.82498944999901 213.610934789511 1.04689075 0 0 0
6029 1 109.12000640000001 216.564111020978 1.04689075 0 0 0
6030 1 107.41498924999901 219.517228189511 1.04689075 0 0 0
6031 1 117.644989849999 207.704670920978 1.04689075 0 0 0
6032 1 115.93998974999901 210.657788089511 1.04689075 0 0 0
6033 1 114.23498964999901 213.610934789511 1.04689075 0 0 0
6034 1 112.53000660000001 216.564111020978 1.04689075 0 0 0
6035 1 110.82498944999901 219.517228189511 1.04689075 0 0 0
6036 2 102.30000600000001 208.689043310489 1.04689075 0 0 0
6037 2 105.71000620000001 208.689043310489 1.04689075 0 0 0
6038 2 104.00502315000101 211.642160479022 1.04689075 0 0 0
6039 2 102.30000600000001 214.595307179022 1.04689075 0 0 0
6040 2 109.12000640000001 208.689043310489 1.04689075 0 0 0
6041 2 107.41502335000101 211.642160479022 1.04689075 0 0 0
6042 2 105.71000620000001 214.595307179022 1.04689075 0 0 0
6043 2 104.00502315000101 217.548483410489 1.04689075 0 0 0
6044 2 102.30000600000001 220.501600579022 1.04689075 0 0 0
6045 2 112.53002365000101 208.689043310489 1.04689075 0 0 0
6046 2 110.82500650000001 211.642160479022 1.04689075 0 0 0
6047 2 109.12000640000001 214.595307179022 1.04689075 0 0 0
6048 2 107.41502335000101 217.548483410489 1.04689075 0 0 0
6049 2 105.71000620000001 220.501600579022 1.04689075 0 0 0
6050 2 115.94002385000101 208.689043310489 1.04689075 0 0 0
6051 2 114.235023750001 211.642160479022 1.04689075 0 0 0
6052 2 112.53002365000101 214.595307179022 1.04689075 0 0 0
6053 2 110.82500650000001 217.548483410489 1.04689075 0 0 0
6054 2 109.12000640000001 220.501600579022 1.04689075 0 0 0
6055 1 102.30000600000001 222.470404420978 1.04689075 0 0 0
6056 1 105.709989149999 222.470404420978 1.04689075 0 0 0
6057 1 104.00500610000002 225.423521589511 1.04689075 0 0 0
6058 1 102.30000600000001 228.376668289511 1.04689075 0 0 0
6059 1 109.12000640000001 222.470404420978 1.04689075 0 0 0
6060 1 107.41498924999901 225.423521589511 1.04689075 0 0 0
6061 1 105.709989149999 228.376668289511 1.04689075 0 0 0
6062 1 104.00500610000002 231.329814989511 1.04689075 0 0 0
6063 1 102.30000600000001 234.282991220978 1.04689075 0 0 0
6064 2 104.00502315000101 223.454747279022 1.04689075 0 0 0
6065 2 102.30000600000001 226.407923510489 1.04689075 0 0 0
6066 2 107.41502335000101 223.454747279022 1.04689075 0 0 0
6067 2 105.71000620000001 226.407923510489 1.04689075 0 0 0
6068 2 104.00502315000101 229.361070210489 1.04689075 0 0 0
6069 2 102.30000600000001 232.314216910489 1.04689075 0 0 0
6070 1 117.644989849999 213.610934789511 1.04689075 0 0 0
6071 1 115.93998974999901 216.564111020978 1.04689075 0 0 0
6072 1 114.23498964999901 219.517228189511 1.04689075 0 0 0
6073 2 134.6950079 235.267334079022 1.04689075 0 0 0
6074 2 117.64500690000001 211.642160479022 1.04689075 0 0 0
6075 2 115.94002385000101 214.595307179022 1.04689075 0 0 0
6076 2 114.235023750001 217.548483410489 1.04689075 0 0 0
6077 2 112.53002365000101 220.501600579022 1.04689075 0 0 0
6078 2 117.64500690000001 217.548483410489 1.04689075 0 0 0
6079 2 115.94002385000101 220.501600579022 1.04689075 0 0 0
6080 1 112.53000660000001 222.470404420978 1.04689075 0 0 0
6081 1 110.82498944999901 225.423521589511 1.04689075 0 0 0
6082 1 109.12000640000001 228.376668289511 1.04689075 0 0 0
6083 1 107.41498924999901 231.329814989511 1.04689075 0 0 0
6084 1 105.709989149999 234.282991220978 1.04689075 0 0 0
6085 1 115.93998974999901 222.470404420978 1.04689075 0 0 0
6086 1 114.23498964999901 225.423521589511 1.04689075 0 0 0
6087 1 112.53000660000001 228.376668289511 1.04689075 0 0 0
6088 1 110.82498944999901 231.329814989511 1.04689075 0 0 0
6089 1 109.12000640000001 234.282991220978 1.04689075 0 0 0
6090 1 117.644989849999 225.423521589511 1.04689075 0 0 0
6091 1 115.93998974999901 228.376668289511 1.04689075 0 0 0
6092 1 114.23498964999901 231.329814989511 1.04689075 0 0 0
6093 1 112.53000660000001 234.282991220978 1.04689075 0 0 0
6094 1 117.644989849999 231.329814989511 1.04689075 0 0 0
6095 1 115.93998974999901 234.282991220978 1.04689075 0 0 0
6096 2 110.82500650000001 223.454747279022 1.04689075 0 0 0
6097 2 109.12000640000001 226.407923510489 1.04689075 0 0 0
6098 2 107.41502335000101 229.361070210489 1.04689075 0 0 0
6099 2 105.71000620000001 232.314216910489 1.04689075 0 0 0
6100 2 104.00502315000101 235.267334079022 1.04689075 0 0 0
6101 2 114.235023750001 223.454747279022 1.04689075 0 0 0
6102 2 112.53002365000101 226.407923510489 1.04689075 0 0 0
6103 2 110.82500650000001 229.361070210489 1.04689075 0 0 0
6104 2 109.12000640000001 232.314216910489 1.04689075 0 0 0
6105 2 107.41502335000101 235.267334079022 1.04689075 0 0 0
6106 2 131.285024750001 235.267334079022 1.04689075 0 0 0
6107 2 115.94002385000101 226.407923510489 1.04689075 0 0 0
6108 2 114.235023750001 229.361070210489 1.04689075 0 0 0
6109 2 112.53002365000101 232.314216910489 1.04689075 0 0 0
6110 2 110.82500650000001 235.267334079022 1.04689075 0 0 0
6111 2 117.64500690000001 229.361070210489 1.04689075 0 0 0
6112 2 115.94002385000101 232.314216910489 1.04689075 0 0 0
6113 2 114.235023750001 235.267334079022 1.04689075 0 0 0
6114 2 117.64500690000001 235.267334079022 1.04689075 0 0 0
6115 1 121.05500710000001 207.704670920978 1.04689075 0 0 0
6116 1 119.350007 210.657788089511 1.04689075 0 0 0
6117 1 124.464990249999 207.704670920978 1.04689075 0 0 0
6118 1 122.75999014999901 210.657788089511 1.04689075 0 0 0
6119 1 121.05500710000001 213.610934789511 1.04689075 0 0 0
6120 1 119.350007 216.564111020978 1.04689075 0 0 0
6121 1 127.87499044999902 207.704670920978 1.04689075 0 0 0
6122 1 126.1700074 210.657788089511 1.04689075 0 0 0
6123 1 124.464990249999 213.610934789511 1.04689075 0 0 0
6124 1 122.75999014999901 216.564111020978 1.04689075 0 0 0
6125 2 132.99002485000102 232.314216910489 1.04689075 0 0 0
6126 1 131.284990649999 207.704670920978 1.04689075 0 0 0
6127 1 129.58000760000002 210.657788089511 1.04689075 0 0 0
6128 1 127.87499044999902 213.610934789511 1.04689075 0 0 0
6129 1 126.1700074 216.564111020978 1.04689075 0 0 0
6130 1 124.464990249999 219.517228189511 1.04689075 0 0 0
6131 1 134.69499084999902 207.704670920978 1.04689075 0 0 0
6132 1 132.989990749999 210.657788089511 1.04689075 0 0 0
6133 1 131.284990649999 213.610934789511 1.04689075 0 0 0
6134 1 129.58000760000002 216.564111020978 1.04689075 0 0 0
6135 1 127.87499044999902 219.517228189511 1.04689075 0 0 0
6136 2 119.350007 208.689043310489 1.04689075 0 0 0
6137 2 122.76000720000002 208.689043310489 1.04689075 0 0 0
6138 2 121.055024150001 211.642160479022 1.04689075 0 0 0
6139 2 119.350007 214.595307179022 1.04689075 0 0 0
6140 2 126.1700074 208.689043310489 1.04689075 0 0 0
6141 2 124.46502435000102 211.642160479022 1.04689075 0 0 0
6142 2 122.76000720000002 214.595307179022 1.04689075 0 0 0
6143 2 121.055024150001 217.548483410489 1.04689075 0 0 0
6144 2 134.6950079 229.361070210489 1.04689075 0 0 0
6145 2 129.580024650001 208.689043310489 1.04689075 0 0 0
6146 2 127.87500750000001 211.642160479022 1.04689075 0 0 0
6147 2 126.1700074 214.595307179022 1.04689075 0 0 0
6148 2 124.46502435000102 217.548483410489 1.04689075 0 0 0
6149 2 122.76000720000002 220.501600579022 1.04689075 0 0 0
6150 2 132.99002485000102 208.689043310489 1.04689075 0 0 0
6151 2 131.285024750001 211.642160479022 1.04689075 0 0 0
6152 2 129.580024650001 214.595307179022 1.04689075 0 0 0
6153 2 127.87500750000001 217.548483410489 1.04689075 0 0 0
6154 2 126.1700074 220.501600579022 1.04689075 0 0 0
6155 2 127.87500750000001 235.267334079022 1.04689075 0 0 0
6156 1 122.75999014999901 222.470404420978 1.04689075 0 0 0
6157 1 121.05500710000001 225.423521589511 1.04689075 0 0 0
6158 1 119.350007 228.376668289511 1.04689075 0 0 0
6159 1 126.1700074 222.470404420978 1.04689075 0 0 0
6160 1 124.464990249999 225.423521589511 1.04689075 0 0 0
6161 1 122.75999014999901 228.376668289511 1.04689075 0 0 0
6162 1 121.05500710000001 231.329814989511 1.04689075 0 0 0
6163 1 119.350007 234.282991220978 1.04689075 0 0 0
6164 2 129.580024650001 232.314216910489 1.04689075 0 0 0
6165 2 119.350007 226.407923510489 1.04689075 0 0 0
6166 2 124.46502435000102 223.454747279022 1.04689075 0 0 0
6167 2 122.76000720000002 226.407923510489 1.04689075 0 0 0
6168 2 121.055024150001 229.361070210489 1.04689075 0 0 0
6169 2 119.350007 232.314216910489 1.04689075 0 0 0
6170 1 134.69499084999902 213.610934789511 1.04689075 0 0 0
6171 1 132.989990749999 216.564111020978 1.04689075 0 0 0
6172 1 131.284990649999 219.517228189511 1.04689075 0 0 0
6173 1 134.69499084999902 219.517228189511 1.04689075 0 0 0
6174 2 134.6950079 211.642160479022 1.04689075 0 0 0
6175 2 132.99002485000102 214.595307179022 1.04689075 0 0 0
6176 2 131.285024750001 217.548483410489 1.04689075 0 0 0
6177 2 129.580024650001 220.501600579022 1.04689075 0 0 0
6178 2 134.6950079 217.548483410489 1.04689075 0 0 0
6179 2 132.99002485000102 220.501600579022 1.04689075 0 0 0
6180 1 129.58000760000002 222.470404420978 1.04689075 0 0 0
6181 1 127.87499044999902 225.423521589511 1.04689075 0 0 0
6182 1 126.1700074 228.376668289511 1.04689075 0 0 0
6183 1 124.464990249999 231.329814989511 1.04689075 0 0 0
6184 1 122.75999014999901 234.282991220978 1.04689075 0 0 0
6185 1 132.989990749999 222.470404420978 1.04689075 0 0 0
6186 1 131.284990649999 225.423521589511 1.04689075 0 0 0
6187 1 129.58000760000002 228.376668289511 1.04689075 0 0 0
6188 1 127.87499044999902 231.329814989511 1.04689075 0 0 0
6189 1 126.1700074 234.282991220978 1.04689075 0 0 0
6190 1 134.69499084999902 225.423521589511 1.04689075 0 0 0
6191 1 132.989990749999 228.376668289511 1.04689075 0 0 0
6192 1 131.284990649999 231.329814989511 1.04689075 0 0 0
6193 1 129.58000760000002 234.282991220978 1.04689075 0 0 0
6194 1 134.69499084999902 231.329814989511 1.04689075 0 0 0
6195 1 132.989990749999 234.282991220978 1.04689075 0 0 0
6196 2 127.87500750000001 223.454747279022 1.04689075 0 0 0
6197 2 126.1700074 226.407923510489 1.04689075 0 0 0
6198 2 124.46502435000102 229.361070210489 1.04689075 0 0 0
6199 2 122.76000720000002 232.314216910489 1.04689075 0 0 0
6200 2 121.055024150001 235.267334079022 1.04689075 0 0 0
6201 2 131.285024750001 223.454747279022 1.04689075 0 0 0
6202 2 129.580024650001 226.407923510489 1.04689075 0 0 0
6203 2 127.87500750000001 229.361070210489 1.04689075 0 0 0
6204 2 126.1700074 232.314216910489 1.04689075 0 0 0
6205 2 124.46502435000102 235.267334079022 1.04689075 0 0 0
6206 2 134.6950079 223.454747279022 1.04689075 0 0 0
6207 2 132.99002485000102 226.407923510489 1.04689075 0 0 0
6208 2 131.285024750001 229.361070210489 1.04689075 0 0 0
6791 1 104.00500610000002 237.236137920978 1.04689075 0 0 0
6792 1 102.30000600000001 240.189255089511 1.04689075 0 0 0
6793 1 107.41498924999901 237.236137920978 1.04689075 0 0 0
6794 1 105.709989149999 240.189255089511 1.04689075 0 0 0
6795 1 104.00500610000002 243.14240178951098 1.04689075 0 0 0
6796 1 102.30000600000001 246.095578020978 1.04689075 0 0 0
6797 1 110.82498944999901 237.236137920978 1.04689075 0 0 0
6798 1 109.12000640000001 240.189255089511 1.04689075 0 0 0
6799 1 107.41498924999901 243.14240178951098 1.04689075 0 0 0
6800 1 105.709989149999 246.095578020978 1.04689075 0 0 0
6801 1 104.00500610000002 249.048695189511 1.04689075 0 0 0
6802 1 114.23498964999901 237.236137920978 1.04689075 0 0 0
6803 1 112.53000660000001 240.189255089511 1.04689075 0 0 0
6804 1 110.82498944999901 243.14240178951098 1.04689075 0 0 0
6805 1 109.12000640000001 246.095578020978 1.04689075 0 0 0
6806 1 107.41498924999901 249.048695189511 1.04689075 0 0 0
6807 1 117.644989849999 237.236137920978 1.04689075 0 0 0
6808 1 115.93998974999901 240.189255089511 1.04689075 0 0 0
6809 1 114.23498964999901 243.14240178951098 1.04689075 0 0 0
6810 1 112.53000660000001 246.095578020978 1.04689075 0 0 0
6811 1 110.82498944999901 249.048695189511 1.04689075 0 0 0
6812 2 102.30000600000001 238.220510310489 1.04689075 0 0 0
6813 2 105.71000620000001 238.220510310489 1.04689075 0 0 0
6814 2 104.00502315000101 241.173627479022 1.04689075 0 0 0
6815 2 102.30000600000001 244.126774179022 1.04689075 0 0 0
6816 2 109.12000640000001 238.220510310489 1.04689075 0 0 0
6817 2 107.41502335000101 241.173627479022 1.04689075 0 0 0
6818 2 105.71000620000001 244.126774179022 1.04689075 0 0 0
6819 2 104.00502315000101 247.079950410489 1.04689075 0 0 0
6820 2 102.30000600000001 250.033067579022 1.04689075 0 0 0
6821 2 112.53002365000101 238.220510310489 1.04689075 0 0 0
6822 2 110.82500650000001 241.173627479022 1.04689075 0 0 0
6823 2 109.12000640000001 244.126774179022 1.04689075 0 0 0
6824 2 107.41502335000101 247.079950410489 1.04689075 0 0 0
6825 2 105.71000620000001 250.033067579022 1.04689075 0 0 0
6826 2 115.94002385000101 238.220510310489 1.04689075 0 0 0
6827 2 114.235023750001 241.173627479022 1.04689075 0 0 0
6828 2 112.53002365000101 244.126774179022 1.04689075 0 0 0
6829 2 110.82500650000001 247.079950410489 1.04689075 0 0 0
6830 2 109.12000640000001 250.033067579022 1.04689075 0 0 0
6831 1 102.30000600000001 252.001871420978 1.04689075 0 0 0
6832 1 105.709989149999 252.001871420978 1.04689075 0 0 0
6833 1 104.00500610000002 254.954988589511 1.04689075 0 0 0
6834 1 102.30000600000001 257.908135289511 1.04689075 0 0 0
6835 1 109.12000640000001 252.001871420978 1.04689075 0 0 0
6836 1 107.41498924999901 254.954988589511 1.04689075 0 0 0
6837 1 105.709989149999 257.908135289511 1.04689075 0 0 0
6838 1 104.00500610000002 260.861281989511 1.04689075 0 0 0
6839 1 102.30000600000001 263.814458220978 1.04689075 0 0 0
6840 2 104.00502315000101 252.986214279022 1.04689075 0 0 0
6841 2 102.30000600000001 255.939390510489 1.04689075 0 0 0
6842 2 107.41502335000101 252.986214279022 1.04689075 0 0 0
6843 2 105.71000620000001 255.939390510489 1.04689075 0 0 0
6844 2 104.00502315000101 258.89253721048897 1.04689075 0 0 0
6845 2 102.30000600000001 261.845683910489 1.04689075 0 0 0
6846 1 117.644989849999 243.14240178951098 1.04689075 0 0 0
6847 1 115.93998974999901 246.095578020978 1.04689075 0 0 0
6848 1 114.23498964999901 249.048695189511 1.04689075 0 0 0
6849 2 134.6950079 264.798801079022 1.04689075 0 0 0
6850 2 117.64500690000001 241.173627479022 1.04689075 0 0 0
6851 2 115.94002385000101 244.126774179022 1.04689075 0 0 0
6852 2 114.235023750001 247.079950410489 1.04689075 0 0 0
6853 2 112.53002365000101 250.033067579022 1.04689075 0 0 0
6854 2 117.64500690000001 247.079950410489 1.04689075 0 0 0
6855 2 115.94002385000101 250.033067579022 1.04689075 0 0 0
6856 1 112.53000660000001 252.001871420978 1.04689075 0 0 0
6857 1 110.82498944999901 254.954988589511 1.04689075 0 0 0
6858 1 109.12000640000001 257.908135289511 1.04689075 0 0 0
6859 1 107.41498924999901 260.861281989511 1.04689075 0 0 0
6860 1 105.709989149999 263.814458220978 1.04689075 0 0 0
6861 1 115.93998974999901 252.001871420978 1.04689075 0 0 0
6862 1 114.23498964999901 254.954988589511 1.04689075 0 0 0
6863 1 112.53000660000001 257.908135289511 1.04689075 0 0 0
6864 1 110.82498944999901 260.861281989511 1.04689075 0 0 0
6865 1 109.12000640000001 263.814458220978 1.04689075 0 0 0
6866 1 117.644989849999 254.954988589511 1.04689075 0 0 0
6867 1 115.93998974999901 257.908135289511 1.04689075 0 0 0
6868 1 114.23498964999901 260.861281989511 1.04689075 0 0 0
6869 1 112.53000660000001 263.814458220978 1.04689075 0 0 0
6870 1 117.644989849999 260.861281989511 1.04689075 0 0 0
6871 1 115.93998974999901 263.814458220978 1.04689075 0 0 0
6872 2 110.82500650000001 252.986214279022 1.04689075 0 0 0
6873 2 109.12000640000001 255.939390510489 1.04689075 0 0 0
6874 2 107.41502335000101 258.89253721048897 1.04689075 0 0 0
6875 2 105.71000620000001 261.845683910489 1.04689075 0 0 0
6876 2 104.00502315000101 264.798801079022 1.04689075 0 0 0
6877 2 114.235023750001 252.986214279022 1.04689075 0 0 0
6878 2 112.53002365000101 255.939390510489 1.04689075 0 0 0
6879 2 110.82500650000001 258.89253721048897 1.04689075 0 0 0
6880 2 109.12000640000001 261.845683910489 1.04689075 0 0 0
6881 2 107.41502335000101 264.798801079022 1.04689075 0 0 0
6882 2 131.285024750001 264.798801079022 1.04689075 0 0 0
6883 2 115.94002385000101 255.939390510489 1.04689075 0 0 0
6884 2 114.235023750001 258.89253721048897 1.04689075 0 0 0
6885 2 112.53002365000101 261.845683910489 1.04689075 0 0 0
6886 2 110.82500650000001 264.798801079022 1.04689075 0 0 0
6887 2 117.64500690000001 258.89253721048897 1.04689075 0 0 0
6888 2 115.94002385000101 261.845683910489 1.04689075 0 0 0
6889 2 114.235023750001 264.798801079022 1.04689075 0 0 0
6890 2 117.64500690000001 264.798801079022 1.04689075 0 0 0
6891 1 121.05500710000001 237.236137920978 1.04689075 0 0 0
6892 1 119.350007 240.189255089511 1.04689075 0 0 0
6893 1 124.464990249999 237.236137920978 1.04689075 0 0 0
6894 1 122.75999014999901 240.189255089511 1.04689075 0 0 0
6895 1 121.05500710000001 243.14240178951098 1.04689075 0 0 0
6896 1 119.350007 246.095578020978 1.04689075 0 0 0
6897 1 127.87499044999902 237.236137920978 1.04689075 0 0 0
6898 1 126.1700074 240.189255089511 1.04689075 0 0 0
6899 1 124.464990249999 243.14240178951098 1.04689075 0 0 0
6900 1 122.75999014999901 246.095578020978 1.04689075 0 0 0
6901 2 132.99002485000102 261.845683910489 1.04689075 0 0 0
6902 1 131.284990649999 237.236137920978 1.04689075 0 0 0
6903 1 129.58000760000002 240.189255089511 1.04689075 0 0 0
6904 1 127.87499044999902 243.14240178951098 1.04689075 0 0 0
6905 1 126.1700074 246.095578020978 1.04689075 0 0 0
6906 1 124.464990249999 249.048695189511 1.04689075 0 0 0
6907 1 134.69499084999902 237.236137920978 1.04689075 0 0 0
6908 1 132.989990749999 240.189255089511 1.04689075 0 0 0
6909 1 131.284990649999 243.14240178951098 1.04689075 0 0 0
6910 1 129.58000760000002 246.095578020978 1.04689075 0 0 0
6911 1 127.87499044999902 249.048695189511 1.04689075 0 0 0
6912 2 119.350007 238.220510310489 1.04689075 0 0 0
6913 2 122.76000720000002 238.220510310489 1.04689075 0 0 0
6914 2 121.055024150001 241.173627479022 1.04689075 0 0 0
6915 2 119.350007 244.126774179022 1.04689075 0 0 0
6916 2 126.1700074 238.220510310489 1.04689075 0 0 0
6917 2 124.46502435000102 241.173627479022 1.04689075 0 0 0
6918 2 122.76000720000002 244.126774179022 1.04689075 0 0 0
6919 2 121.055024150001 247.079950410489 1.04689075 0 0 0
6920 2 134.6950079 258.89253721048897 1.04689075 0 0 0
6921 2 129.580024650001 238.220510310489 1.04689075 0 0 0
6922 2 127.87500750000001 241.173627479022 1.04689075 0 0 0
6923 2 126.1700074 244.126774179022 1.04689075 0 0 0
6924 2 124.46502435000102 247.079950410489 1.04689075 0 0 0
6925 2 122.76000720000002 250.033067579022 1.04689075 0 0 0
6926 2 132.99002485000102 238.220510310489 1.04689075 0 0 0
6927 2 131.285024750001 241.173627479022 1.04689075 0 0 0
6928 2 129.580024650001 244.126774179022 1.04689075 0 0 0
6929 2 127.87500750000001 247.079950410489 1.04689075 0 0 0
6930 2 126.1700074 250.033067579022 1.04689075 0 0 0
6931 2 127.87500750000001 264.798801079022 1.04689075 0 0 0
6932 1 122.75999014999901 252.001871420978 1.04689075 0 0 0
6933 1 121.05500710000001 254.954988589511 1.04689075 0 0 0
6934 1 119.350007 257.908135289511 1.04689075 0 0 0
6935 1 126.1700074 252.001871420978 1.04689075 0 0 0
6936 1 124.464990249999 254.954988589511 1.04689075 0 0 0
6937 1 122.75999014999901 257.908135289511 1.04689075 0 0 0
6938 1 121.05500710000001 260.861281989511 1.04689075 0 0 0
6939 1 119.350007 263.814458220978 1.04689075 0 0 0
6940 2 129.580024650001 261.845683910489 1.04689075 0 0 0
6941 2 119.350007 255.939390510489 1.04689075 0 0 0
6942 2 124.46502435000102 252.986214279022 1.04689075 0 0 0
6943 2 122.76000720000002 255.939390510489 1.04689075 0 0 0
6944 2 121.055024150001 258.89253721048897 1.04689075 0 0 0
6945 2 119.350007 261.845683910489 1.04689075 0 0 0
6946 1 134.69499084999902 243.14240178951098 1.04689075 0 0 0
6947 1 132.989990749999 246.095578020978 1.04689075 0 0 0
6948 1 131.284990649999 249.048695189511 1.04689075 0 0 0
6949 1 134.69499084999902 249.048695189511 1.04689075 0 0 0
6950 2 134.6950079 241.173627479022 1.04689075 0 0 0
6951 2 132.99002485000102 244.126774179022 1.04689075 0 0 0
6952 2 131.285024750001 247.079950410489 1.04689075 0 0 0
6953 2 129.580024650001 250.033067579022 1.04689075 0 0 0
6954 2 134.6950079 247.079950410489 1.04689075 0 0 0
6955 2 132.99002485000102 250.033067579022 1.04689075 0 0 0
6956 1 129.58000760000002 252.001871420978 1.04689075 0 0 0
6957 1 127.87499044999902 254.954988589511 1.04689075 0 0 0
6958 1 126.1700074 257.908135289511 1.04689075 0 0 0
6959 1 124.464990249999 260.861281989511 1.04689075 0 0 0
6960 1 122.75999014999901 263.814458220978 1.04689075 0 0 0
6961 1 132.989990749999 252.001871420978 1.04689075 0 0 0
6962 1 131.284990649999 254.954988589511 1.04689075 0 0 0
6963 1 129.58000760000002 257.908135289511 1.04689075 0 0 0
6964 1 127.87499044999902 260.861281989511 1.04689075 0 0 0
6965 1 126.1700074 263.814458220978 1.04689075 0 0 0
6966 1 134.69499084999902 254.954988589511 1.04689075 0 0 0
6967 1 132.989990749999 257.908135289511 1.04689075 0 0 0
6968 1 131.284990649999 260.861281989511 1.04689075 0 0 0
6969 1 129.58000760000002 263.814458220978 1.04689075 0 0 0
6970 1 134.69499084999902 260.861281989511 1.04689075 0 0 0
6971 1 132.989990749999 263.814458220978 1.04689075 0 0 0
6972 2 127.87500750000001 252.986214279022 1.04689075 0 0 0
6973 2 126.1700074 255.939390510489 1.04689075 0 0 0
6974 2 124.46502435000102 258.89253721048897 1.04689075 0 0 0
6975 2 122.76000720000002 261.845683910489 1.04689075 0 0 0
6976 2 121.055024150001 264.798801079022 1.04689075 0 0 0
6977 2 131.285024750001 252.986214279022 1.04689075 0 0 0
6978 2 129.580024650001 255.939390510489 1.04689075 0 0 0
6979 2 127.87500750000001 258.89253721048897 1.04689075 0 0 0
6980 2 126.1700074 261.845683910489 1.04689075 0 0 0
6981 2 124.46502435000102 264.798801079022 1.04689075 0 0 0
6982 2 134.6950079 252.986214279022 1.04689075 0 0 0
6983 2 132.99002485000102 255.939390510489 1.04689075 0 0 0
6984 2 131.285024750001 258.89253721048897 1.04689075 0 0 0
7567 1 104.00500610000002 266.767604920978 1.04689075 0 0 0
7568 1 102.30000600000001 269.720722089511 1.04689075 0 0 0
7569 1 107.41498924999901 266.767604920978 1.04689075 0 0 0
7570 1 105.709989149999 269.720722089511 1.04689075 0 0 0
7571 1 104.00500610000002 272.673868789511 1.04689075 0 0 0
7572 1 102.30000600000001 275.627045020978 1.04689075 0 0 0
7573 1 110.82498944999901 266.767604920978 1.04689075 0 0 0
7574 1 109.12000640000001 269.720722089511 1.04689075 0 0 0
7575 1 107.41498924999901 272.673868789511 1.04689075 0 0 0
7576 1 105.709989149999 275.627045020978 1.04689075 0 0 0
7577 1 104.00500610000002 278.58016218951104 1.04689075 0 0 0
7578 1 114.23498964999901 266.767604920978 1.04689075 0 0 0
7579 1 112.53000660000001 269.720722089511 1.04689075 0 0 0
7580 1 110.82498944999901 272.673868789511 1.04689075 0 0 0
7581 1 109.12000640000001 275.627045020978 1.04689075 0 0 0
7582 1 107.41498924999901 278.58016218951104 1.04689075 0 0 0
7583 1 117.644989849999 266.767604920978 1.04689075 0 0 0
7584 1 115.93998974999901 269.720722089511 1.04689075 0 0 0
7585 1 114.23498964999901 272.673868789511 1.04689075 0 0 0
7586 1 112.53000660000001 275.627045020978 1.04689075 0 0 0
7587 1 110.82498944999901 278.58016218951104 1.04689075 0 0 0
7588 2 102.30000600000001 267.751977310489 1.04689075 0 0 0
7589 2 105.71000620000001 267.751977310489 1.04689075 0 0 0
7590 2 104.00502315000101 270.705094479022 1.04689075 0 0 0
7591 2 102.30000600000001 273.658241179022 1.04689075 0 0 0
7592 2 109.12000640000001 267.751977310489 1.04689075 0 0 0
7593 2 107.41502335000101 270.705094479022 1.04689075 0 0 0
7594 2 105.71000620000001 273.658241179022 1.04689075 0 0 0
7595 2 104.00502315000101 276.611417410489 1.04689075 0 0 0
7596 2 102.30000600000001 279.564534579022 1.04689075 0 0 0
7597 2 112.53002365000101 267.751977310489 1.04689075 0 0 0
7598 2 110.82500650000001 270.705094479022 1.04689075 0 0 0
7599 2 109.12000640000001 273.658241179022 1.04689075 0 0 0
7600 2 107.41502335000101 276.611417410489 1.04689075 0 0 0
7601 2 105.71000620000001 279.564534579022 1.04689075 0 0 0
7602 2 115.94002385000101 267.751977310489 1.04689075 0 0 0
7603 2 114.235023750001 270.705094479022 1.04689075 0 0 0
7604 2 112.53002365000101 273.658241179022 1.04689075 0 0 0
7605 2 110.82500650000001 276.611417410489 1.04689075 0 0 0
7606 2 109.12000640000001 279.564534579022 1.04689075 0 0 0
7607 1 102.30000600000001 281.533338420978 1.04689075 0 0 0
7608 1 105.709989149999 281.533338420978 1.04689075 0 0 0
7609 1 104.00500610000002 284.486455589511 1.04689075 0 0 0
7610 1 102.30000600000001 287.439602289511 1.04689075 0 0 0
7611 1 109.12000640000001 281.533338420978 1.04689075 0 0 0
7612 1 107.41498924999901 284.486455589511 1.04689075 0 0 0
7613 1 105.709989149999 287.439602289511 1.04689075 0 0 0
7614 1 104.00500610000002 290.392748989511 1.04689075 0 0 0
7615 1 102.30000600000001 293.345925220978 1.04689075 0 0 0
7616 2 104.00502315000101 282.517681279022 1.04689075 0 0 0
7617 2 102.30000600000001 285.470857510489 1.04689075 0 0 0
7618 2 107.41502335000101 282.517681279022 1.04689075 0 0 0
7619 2 105.71000620000001 285.470857510489 1.04689075 0 0 0
7620 2 104.00502315000101 288.424004210489 1.04689075 0 0 0
7621 2 102.30000600000001 291.37715091048904 1.04689075 0 0 0
7622 1 117.644989849999 272.673868789511 1.04689075 0 0 0
7623 1 115.93998974999901 275.627045020978 1.04689075 0 0 0
7624 1 114.23498964999901 278.58016218951104 1.04689075 0 0 0
7625 2 134.6950079 294.330268079022 1.04689075 0 0 0
7626 2 117.64500690000001 270.705094479022 1.04689075 0 0 0
7627 2 115.94002385000101 273.658241179022 1.04689075 0 0 0
7628 2 114.235023750001 276.611417410489 1.04689075 0 0 0
7629 2 112.53002365000101 279.564534579022 1.04689075 0 0 0
7630 2 117.64500690000001 276.611417410489 1.04689075 0 0 0
7631 2 115.94002385000101 279.564534579022 1.04689075 0 0 0
7632 1 112.53000660000001 281.533338420978 1.04689075 0 0 0
7633 1 110.82498944999901 284.486455589511 1.04689075 0 0 0
7634 1 109.12000640000001 287.439602289511 1.04689075 0 0 0
7635 1 107.41498924999901 290.392748989511 1.04689075 0 0 0
7636 1 105.709989149999 293.345925220978 1.04689075 0 0 0
7637 1 115.93998974999901 281.533338420978 1.04689075 0 0 0
7638 1 114.23498964999901 284.486455589511 1.04689075 0 0 0
7639 1 112.53000660000001 287.439602289511 1.04689075 0 0 0
7640 1 110.82498944999901 290.392748989511 1.04689075 0 0 0
7641 1 109.12000640000001 293.345925220978 1.04689075 0 0 0
7642 1 117.644989849999 284.486455589511 1.04689075 0 0 0
7643 1 115.93998974999901 287.439602289511 1.04689075 0 0 0
7644 1 114.23498964999901 290.392748989511 1.04689075 0 0 0
7645 1 112.53000660000001 293.345925220978 1.04689075 0 0 0
7646 1 117.644989849999 290.392748989511 1.04689075 0 0 0
7647 1 115.93998974999901 293.345925220978 1.04689075 0 0 0
7648 2 110.82500650000001 282.517681279022 1.04689075 0 0 0
7649 2 109.12000640000001 285.470857510489 1.04689075 0 0 0
7650 2 107.41502335000101 288.424004210489 1.04689075 0 0 0
7651 2 105.71000620000001 291.37715091048904 1.04689075 0 0 0
7652 2 104.00502315000101 294.330268079022 1.04689075 0 0 0
7653 2 114.235023750001 282.517681279022 1.04689075 0 0 0
7654 2 112.53002365000101 285.470857510489 1.04689075 0 0 0
7655 2 110.82500650000001 288.424004210489 1.04689075 0 0 0
7656 2 109.12000640000001 291.37715091048904 1.04689075 0 0 0
7657 2 107.41502335000101 294.330268079022 1.04689075 0 0 0
7658 2 131.285024750001 294.330268079022 1.04689075 0 0 0
7659 2 115.94002385000101 285.470857510489 1.04689075 0 0 0
7660 2 114.235023750001 288.424004210489 1.04689075 0 0 0
7661 2 112.53002365000101 291.37715091048904 1.04689075 0 0 0
7662 2 110.82500650000001 294.330268079022 1.04689075 0 0 0
7663 2 117.64500690000001 288.424004210489 1.04689075 0 0 0
7664 2 115.94002385000101 291.37715091048904 1.04689075 0 0 0
7665 2 114.235023750001 294.330268079022 1.04689075 0 0 0
7666 2 117.64500690000001 294.330268079022 1.04689075 0 0 0
7667 1 121.05500710000001 266.767604920978 1.04689075 0 0 0
7668 1 119.350007 269.720722089511 1.04689075 0 0 0
7669 1 124.464990249999 266.767604920978 1.04689075 0 0 0
7670 1 122.75999014999901 269.720722089511 1.04689075 0 0 0
7671 1 121.05500710000001 272.673868789511 1.04689075 0 0 0
7672 1 119.350007 275.627045020978 1.04689075 0 0 0
7673 1 127.87499044999902 266.767604920978 1.04689075 0 0 0
7674 1 126.1700074 269.720722089511 1.04689075 0 0 0
7675 1 124.464990249999 272.673868789511 1.04689075 0 0 0
7676 1 122.75999014999901 275.627045020978 1.04689075 0 0 0
7677 2 132.99002485000102 291.37715091048904 1.04689075 0 0 0
7678 1 131.284990649999 266.767604920978 1.04689075 0 0 0
7679 1 129.58000760000002 269.720722089511 1.04689075 0 0 0
7680 1 127.87499044999902 272.673868789511 1.04689075 0 0 0
7681 1 126.1700074 275.627045020978 1.04689075 0 0 0
7682 1 124.464990249999 278.58016218951104 1.04689075 0 0 0
7683 1 134.69499084999902 266.767604920978 1.04689075 0 0 0
7684 1 132.989990749999 269.720722089511 1.04689075 0 0 0
7685 1 131.284990649999 272.673868789511 1.04689075 0 0 0
7686 1 129.58000760000002 275.627045020978 1.04689075 0 0 0
7687 1 127.87499044999902 278.58016218951104 1.04689075 0 0 0
7688 2 119.350007 267.751977310489 1.04689075 0 0 0
7689 2 122.76000720000002 267.751977310489 1.04689075 0 0 0
7690 2 121.055024150001 270.705094479022 1.04689075 0 0 0
7691 2 119.350007 273.658241179022 1.04689075 0 0 0
7692 2 126.1700074 267.751977310489 1.04689075 0 0 0
7693 2 124.46502435000102 270.705094479022 1.04689075 0 0 0
7694 2 122.76000720000002 273.658241179022 1.04689075 0 0 0
7695 2 121.055024150001 276.611417410489 1.04689075 0 0 0
7696 2 134.6950079 288.424004210489 1.04689075 0 0 0
7697 2 129.580024650001 267.751977310489 1.04689075 0 0 0
7698 2 127.87500750000001 270.705094479022 1.04689075 0 0 0
7699 2 126.1700074 273.658241179022 1.04689075 0 0 0
7700 2 124.46502435000102 276.611417410489 1.04689075 0 0 0
7701 2 122.76000720000002 279.564534579022 1.04689075 0 0 0
7702 2 132.99002485000102 267.751977310489 1.04689075 0 0 0
7703 2 131.285024750001 270.705094479022 1.04689075 0 0 0
7704 2 129.580024650001 273.658241179022 1.04689075 0 0 0
7705 2 127.87500750000001 276.611417410489 1.04689075 0 0 0
7706 2 126.1700074 279.564534579022 1.04689075 0 0 0
7707 2 127.87500750000001 294.330268079022 1.04689075 0 0 0
7708 1 122.75999014999901 281.533338420978 1.04689075 0 0 0
7709 1 121.05500710000001 284.486455589511 1.04689075 0 0 0
7710 1 119.350007 287.439602289511 1.04689075 0 0 0
7711 1 126.1700074 281.533338420978 1.04689075 0 0 0
7712 1 124.464990249999 284.486455589511 1.04689075 0 0 0
7713 1 122.75999014999901 287.439602289511 1.04689075 0 0 0
7714 1 121.05500710000001 290.392748989511 1.04689075 0 0 0
7715 1 119.350007 293.345925220978 1.04689075 0 0 0
7716 2 129.580024650001 291.37715091048904 1.04689075 0 0 0
7717 2 119.350007 285.470857510489 1.04689075 0 0 0
7718 2 124.46502435000102 282.517681279022 1.04689075 0 0 0
7719 2 122.76000720000002 285.470857510489 1.04689075 0 0 0
7720 2 121.055024150001 288.424004210489 1.04689075 0 0 0
7721 2 119.350007 291.37715091048904 1.04689075 0 0 0
7722 1 134.69499084999902 272.673868789511 1.04689075 0 0 0
7723 1 132.989990749999 275.627045020978 1.04689075 0 0 0
7724 1 131.284990649999 278.58016218951104 1.04689075 0 0 0
7725 1 134.69499084999902 278.58016218951104 1.04689075 0 0 0
7726 2 134.6950079 270.705094479022 1.04689075 0 0 0
7727 2 132.99002485000102 273.658241179022 1.04689075 0 0 0
7728 2 131.285024750001 276.611417410489 1.04689075 0 0 0
7729 2 129.580024650001 279.564534579022 1.04689075 0 0 0
7730 2 134.6950079 276.611417410489 1.04689075 0 0 0
7731 2 132.99002485000102 279.564534579022 1.04689075 0 0 0
7732 1 129.58000760000002 281.533338420978 1.04689075 0 0 0
7733 1 127.87499044999902 284.486455589511 1.04689075 0 0 0
7734 1 126.1700074 287.439602289511 1.04689075 0 0 0
7735 1 124.464990249999 290.392748989511 1.04689075 0 0 0
7736 1 122.75999014999901 293.345925220978 1.04689075 0 0 0
7737 1 132.989990749999 281.533338420978 1.04689075 0 0 0
7738 1 131.284990649999 284.486455589511 1.04689075 0 0 0
7739 1 129.58000760000002 287.439602289511 1.04689075 0 0 0
7740 1 127.87499044999902 290.392748989511 1.04689075 0 0 0
7741 1 126.1700074 293.345925220978 1.04689075 0 0 0
7742 1 134.69499084999902 284.486455589511 1.04689075 0 0 0
7743 1 132.989990749999 287.439602289511 1.04689075 0 0 0
7744 1 131.284990649999 290.392748989511 1.04689075 0 0 0
7745 1 129.58000760000002 293.345925220978 1.04689075 0 0 0
7746 1 134.69499084999902 290.392748989511 1.04689075 0 0 0
7747 1 132.989990749999 293.345925220978 1.04689075 0 0 0
7748 2 127.87500750000001 282.517681279022 1.04689075 0 0 0
7749 2 126.1700074 285.470857510489 1.04689075 0 0 0
7750 2 124.46502435000102 288.424004210489 1.04689075 0 0 0
7751 2 122.76000720000002 291.37715091048904 1.04689075 0 0 0
7752 2 121.055024150001 294.330268079022 1.04689075 0 0 0
7753 2 131.285024750001 282.517681279022 1.04689075 0 0 0
7754 2 129.580024650001 285.470857510489 1.04689075 0 0 0
7755 2 127.87500750000001 288.424004210489 1.04689075 0 0 0
7756 2 126.1700074 291.37715091048904 1.04689075 0 0 0
7757 2 124.46502435000102 294.330268079022 1.04689075 0 0 0
7758 2 134.6950079 282.517681279022 1.04689075 0 0 0
7759 2 132.99002485000102 285.470857510489 1.04689075 0 0 0
7760 2 131.285024750001 288.424004210489 1.04689075 0 0 0
8343 1 104.00500610000002 296.29907192097795 1.04689075 0 0 0
8344 1 102.30000600000001 299.252189089511 1.04689075 0 0 0
8345 1 107.41498924999901 296.29907192097795 1.04689075 0 0 0
8346 1 105.709989149999 299.252189089511 1.04689075 0 0 0
8347 1 104.00500610000002 302.20533578951097 1.04689075 0 0 0
8348 1 102.30000600000001 305.158512020978 1.04689075 0 0 0
8349 1 110.82498944999901 296.29907192097795 1.04689075 0 0 0
8350 1 109.12000640000001 299.252189089511 1.04689075 0 0 0
8351 1 107.41498924999901 302.20533578951097 1.04689075 0 0 0
8352 1 105.709989149999 305.158512020978 1.04689075 0 0 0
8353 1 104.00500610000002 308.11162918951095 1.04689075 0 0 0
8354 1 114.23498964999901 296.29907192097795 1.04689075 0 0 0
8355 1 112.53000660000001 299.252189089511 1.04689075 0 0 0
8356 1 110.82498944999901 302.20533578951097 1.04689075 0 0 0
8357 1 109.12000640000001 305.158512020978 1.04689075 0 0 0
8358 1 107.41498924999901 308.11162918951095 1.04689075 0 0 0
8359 1 117.644989849999 296.29907192097795 1.04689075 0 0 0
8360 1 115.93998974999901 299.252189089511 1.04689075 0 0 0
8361 1 114.23498964999901 302.20533578951097 1.04689075 0 0 0
8362 1 112.53000660000001 305.158512020978 1.04689075 0 0 0
8363 1 110.82498944999901 308.11162918951095 1.04689075 0 0 0
8364 2 102.30000600000001 297.28344431048896 1.04689075 0 0 0
8365 2 105.71000620000001 297.28344431048896 1.04689075 0 0 0
8366 2 104.00502315000101 300.236561479022 1.04689075 0 0 0
8367 2 102.30000600000001 303.189708179022 1.04689075 0 0 0
8368 2 109.12000640000001 297.28344431048896 1.04689075 0 0 0
8369 2 107.41502335000101 300.236561479022 1.04689075 0 0 0
8370 2 105.71000620000001 303.189708179022 1.04689075 0 0 0
8371 2 104.00502315000101 306.142884410489 1.04689075 0 0 0
8372 2 102.30000600000001 309.09600157902196 1.04689075 0 0 0
8373 2 112.53002365000101 297.28344431048896 1.04689075 0 0 0
8374 2 110.82500650000001 300.236561479022 1.04689075 0 0 0
8375 2 109.12000640000001 303.189708179022 1.04689075 0 0 0
8376 2 107.41502335000101 306.142884410489 1.04689075 0 0 0
8377 2 105.71000620000001 309.09600157902196 1.04689075 0 0 0
8378 2 115.94002385000101 297.28344431048896 1.04689075 0 0 0
8379 2 114.235023750001 300.236561479022 1.04689075 0 0 0
8380 2 112.53002365000101 303.189708179022 1.04689075 0 0 0
8381 2 110.82500650000001 306.142884410489 1.04689075 0 0 0
8382 2 109.12000640000001 309.09600157902196 1.04689075 0 0 0
8383 1 102.30000600000001 311.06480542097796 1.04689075 0 0 0
8384 1 105.709989149999 311.06480542097796 1.04689075 0 0 0
8385 1 104.00500610000002 314.017922589511 1.04689075 0 0 0
8386 1 102.30000600000001 316.971069289511 1.04689075 0 0 0
8387 1 109.12000640000001 311.06480542097796 1.04689075 0 0 0
8388 1 107.41498924999901 314.017922589511 1.04689075 0 0 0
8389 1 105.709989149999 316.971069289511 1.04689075 0 0 0
8390 1 104.00500610000002 319.92421598951097 1.04689075 0 0 0
8391 1 102.30000600000001 322.877392220978 1.04689075 0 0 0
8392 2 104.00502315000101 312.049148279022 1.04689075 0 0 0
8393 2 102.30000600000001 315.00232451048896 1.04689075 0 0 0
8394 2 107.41502335000101 312.049148279022 1.04689075 0 0 0
8395 2 105.71000620000001 315.00232451048896 1.04689075 0 0 0
8396 2 104.00502315000101 317.95547121048895 1.04689075 0 0 0
8397 2 102.30000600000001 320.908617910489 1.04689075 0 0 0
8398 1 117.644989849999 302.20533578951097 1.04689075 0 0 0
8399 1 115.93998974999901 305.158512020978 1.04689075 0 0 0
8400 1 114.23498964999901 308.11162918951095 1.04689075 0 0 0
8401 2 134.6950079 323.86173507902197 1.04689075 0 0 0
8402 2 117.64500690000001 300.236561479022 1.04689075 0 0 0
8403 2 115.94002385000101 303.189708179022 1.04689075 0 0 0
8404 2 114.235023750001 306.142884410489 1.04689075 0 0 0
8405 2 112.53002365000101 309.09600157902196 1.04689075 0 0 0
8406 2 117.64500690000001 306.142884410489 1.04689075 0 0 0
8407 2 115.94002385000101 309.09600157902196 1.04689075 0 0 0
8408 1 112.53000660000001 311.06480542097796 1.04689075 0 0 0
8409 1 110.82498944999901 314.017922589511 1.04689075 0 0 0
8410 1 109.12000640000001 316.971069289511 1.04689075 0 0 0
8411 1 107.41498924999901 319.92421598951097 1.04689075 0 0 0
8412 1 105.709989149999 322.877392220978 1.04689075 0 0 0
8413 1 115.93998974999901 311.06480542097796 1.04689075 0 0 0
8414 1 114.23498964999901 314.017922589511 1.04689075 0 0 0
8415 1 112.53000660000001 316.971069289511 1.04689075 0 0 0
8416 1 110.82498944999901 319.92421598951097 1.04689075 0 0 0
8417 1 109.12000640000001 322.877392220978 1.04689075 0 0 0
8418 1 117.644989849999 314.017922589511 1.04689075 0 0 0
8419 1 115.93998974999901 316.971069289511 1.04689075 0 0 0
8420 1 114.23498964999901 319.92421598951097 1.04689075 0 0 0
8421 1 112.53000660000001 322.877392220978 1.04689075 0 0 0
8422 1 117.644989849999 319.92421598951097 1.04689075 0 0 0
8423 1 115.93998974999901 322.877392220978 1.04689075 0 0 0
8424 2 110.82500650000001 312.049148279022 1.04689075 0 0 0
8425 2 109.12000640000001 315.00232451048896 1.04689075 0 0 0
8426 2 107.41502335000101 317.95547121048895 1.04689075 0 0 0
8427 2 105.71000620000001 320.908617910489 1.04689075 0 0 0
8428 2 104.00502315000101 323.86173507902197 1.04689075 0 0 0
8429 2 114.235023750001 312.049148279022 1.04689075 0 0 0
8430 2 112.53002365000101 315.00232451048896 1.04689075 0 0 0
8431 2 110.82500650000001 317.95547121048895 1.04689075 0 0 0
8432 2 109.12000640000001 320.908617910489 1.04689075 0 0 0
8433 2 107.41502335000101 323.86173507902197 1.04689075 0 0 0
8434 2 131.285024750001 323.86173507902197 1.04689075 0 0 0
8435 2 115.94002385000101 315.00232451048896 1.04689075 0 0 0
8436 2 114.235023750001 317.95547121048895 1.04689075 0 0 0
8437 2 112.53002365000101 320.908617910489 1.04689075 0 0 0
8438 2 110.82500650000001 323.86173507902197 1.04689075 0 0 0
8439 2 117.64500690000001 317.95547121048895 1.04689075 0 0 0
8440 2 115.94002385000101 320.908617910489 1.04689075 0 0 0
8441 2 114.235023750001 323.86173507902197 1.04689075 0 0 0
8442 2 117.64500690000001 323.86173507902197 1.04689075 0 0 0
8443 1 121.05500710000001 296.29907192097795 1.04689075 0 0 0
8444 1 119.350007 299.252189089511 1.04689075 0 0 0
8445 1 124.464990249999 296.29907192097795 1.04689075 0 0 0
8446 1 122.75999014999901 299.252189089511 1.04689075 0 0 0
8447 1 121.05500710000001 302.20533578951097 1.04689075 0 0 0
8448 1 119.350007 305.158512020978 1.04689075 0 0 0
8449 1 127.87499044999902 296.29907192097795 1.04689075 0 0 0
8450 1 126.1700074 299.252189089511 1.04689075 0 0 0
8451 1 124.464990249999 302.20533578951097 1.04689075 0 0 0
8452 1 122.75999014999901 305.158512020978 1.04689075 0 0 0
8453 2 132.99002485000102 320.908617910489 1.04689075 0 0 0
8454 1 131.284990649999 296.29907192097795 1.04689075 0 0 0
8455 1 129.58000760000002 299.252189089511 1.04689075 0 0 0
8456 1 127.87499044999902 302.20533578951097 1.04689075 0 0 0
8457 1 126.1700074 305.158512020978 1.04689075 0 0 0
8458 1 124.464990249999 308.11162918951095 1.04689075 0 0 0
8459 1 134.69499084999902 296.29907192097795 1.04689075 0 0 0
8460 1 132.989990749999 299.252189089511 1.04689075 0 0 0
8461 1 131.284990649999 302.20533578951097 1.04689075 0 0 0
8462 1 129.58000760000002 305.158512020978 1.04689075 0 0 0
8463 1 127.87499044999902 308.11162918951095 1.04689075 0 0 0
8464 2 119.350007 297.28344431048896 1.04689075 0 0 0
8465 2 122.76000720000002 297.28344431048896 1.04689075 0 0 0
8466 2 121.055024150001 300.236561479022 1.04689075 0 0 0
8467 2 119.350007 303.189708179022 1.04689075 0 0 0
8468 2 126.1700074 297.28344431048896 1.04689075 0 0 0
8469 2 124.46502435000102 300.236561479022 1.04689075 0 0 0
8470 2 122.76000720000002 303.189708179022 1.04689075 0 0 0
8471 2 121.055024150001 306.142884410489 1.04689075 0 0 0
8472 2 134.6950079 317.95547121048895 1.04689075 0 0 0
8473 2 129.580024650001 297.28344431048896 1.04689075 0 0 0
8474 2 127.87500750000001 300.236561479022 1.04689075 0 0 0
8475 2 126.1700074 303.189708179022 1.04689075 0 0 0
8476 2 124.46502435000102 306.142884410489 1.04689075 0 0 0
8477 2 122.76000720000002 309.09600157902196 1.04689075 0 0 0
8478 2 132.99002485000102 297.28344431048896 1.04689075 0 0 0
8479 2 131.285024750001 300.236561479022 1.04689075 0 0 0
8480 2 129.580024650001 303.189708179022 1.04689075 0 0 0
8481 2 127.87500750000001 306.142884410489 1.04689075 0 0 0
8482 2 126.1700074 309.09600157902196 1.04689075 0 0 0
8483 2 127.87500750000001 323.86173507902197 1.04689075 0 0 0
8484 1 122.75999014999901 311.06480542097796 1.04689075 0 0 0
8485 1 121.05500710000001 314.017922589511 1.04689075 0 0 0
8486 1 119.350007 316.971069289511 1.04689075 0 0 0
8487 1 126.1700074 311.06480542097796 1.04689075 0 0 0
8488 1 124.464990249999 314.017922589511 1.04689075 0 0 0
8489 1 122.75999014999901 316.971069289511 1.04689075 0 0 0
8490 1 121.05500710000001 319.92421598951097 1.04689075 0 0 0
8491 1 119.350007 322.877392220978 1.04689075 0 0 0
8492 2 129.580024650001 320.908617910489 1.04689075 0 0 0
8493 2 119.350007 315.00232451048896 1.04689075 0 0 0
8494 2 124.46502435000102 312.049148279022 1.04689075 0 0 0
8495 2 122.76000720000002 315.00232451048896 1.04689075 0 0 0
8496 2 121.055024150001 317.95547121048895 1.04689075 0 0 0
8497 2 119.350007 320.908617910489 1.04689075 0 0 0
8498 1 134.69499084999902 302.20533578951097 1.04689075 0 0 0
8499 1 132.989990749999 305.158512020978 1.04689075 0 0 0
8500 1 131.284990649999 308.11162918951095 1.04689075 0 0 0
8501 1 134.69499084999902 308.11162918951095 1.04689075 0 0 0
8502 2 134.6950079 300.236561479022 1.04689075 0 0 0
8503 2 132.99002485000102 303.189708179022 1.04689075 0 0 0
8504 2 131.285024750001 306.142884410489 1.04689075 0 0 0
8505 2 129.580024650001 309.09600157902196 1.04689075 0 0 0
8506 2 134.6950079 306.142884410489 1.04689075 0 0 0
8507 2 132.99002485000102 309.09600157902196 1.04689075 0 0 0
8508 1 129.58000760000002 311.06480542097796 1.04689075 0 0 0
8509 1 127.87499044999902 314.017922589511 1.04689075 0 0 0
8510 1 126.1700074 316.971069289511 1.04689075 0 0 0
8511 1 124.464990249999 319.92421598951097 1.04689075 0 0 0
8512 1 122.75999014999901 322.877392220978 1.04689075 0 0 0
8513 1 132.989990749999 311.06480542097796 1.04689075 0 0 0
8514 1 131.284990649999 314.017922589511 1.04689075 0 0 0
8515 1 129.58000760000002 316.971069289511 1.04689075 0 0 0
8516 1 127.87499044999902 319.92421598951097 1.04689075 0 0 0
8517 1 126.1700074 322.877392220978 1.04689075 0 0 0
8518 1 134.69499084999902 314.017922589511 1.04689075 0 0 0
8519 1 132.989990749999 316.971069289511 1.04689075 0 0 0
8520 1 131.284990649999 319.92421598951097 1.04689075 0 0 0
8521 1 129.58000760000002 322.877392220978 1.04689075 0 0 0
8522 1 134.69499084999902 319.92421598951097 1.04689075 0 0 0
8523 1 132.989990749999 322.877392220978 1.04689075 0 0 0
8524 2 127.87500750000001 312.049148279022 1.04689075 0 0 0
8525 2 126.1700074 315.00232451048896 1.04689075 0 0 0
8526 2 124.46502435000102 317.95547121048895 1.04689075 0 0 0
8527 2 122.76000720000002 320.908617910489 1.04689075 0 0 0
8528 2 121.055024150001 323.86173507902197 1.04689075 0 0 0
8529 2 131.285024750001 312.049148279022 1.04689075 0 0 0
8530 2 129.580024650001 315.00232451048896 1.04689075 0 0 0
8531 2 127.87500750000001 317.95547121048895 1.04689075 0 0 0
8532 2 126.1700074 320.908617910489 1.04689075 0 0 0
8533 2 124.46502435000102 323.86173507902197 1.04689075 0 0 0
8534 2 134.6950079 312.049148279022 1.04689075 0 0 0
8535 2 132.99002485000102 315.00232451048896 1.04689075 0 0 0
8536 2 131.285024750001 317.95547121048895 1.04689075 0 0 0

Velocities

1 0 0 0
2 0 0 0
3 0 0 0
4 0 0 0
5 0 0 0
6 0 0 0
7 0 0 0
8 0 0 0
9 0 0 0
10 0 0 0
11 0 0 0
12 0 0 0
13 0 0 0
14 0 0 0
15 0 0 0
16 0 0 0
17 0 0 0
18 0 0 0
19 0 0 0
20 0 0 0
21 0 0 0
22 0 0 0
23 0 0 0
24 0 0 0
25 0 0 0
26 0 0 0
27 0 0 0
28 0 0 0
29 0 0 0
30 0 0 0
31 0 0 0
32 0 0 0
33 0 0 0
34 0 0 0
35 0 0 0
36 0 0 0
37 0 0 0
38 0 0 0
39 0 0 0
40 0 0 0
41 0 0 0
42 0 0 0
43 0 0 0
44 0 0 0
45 0 0 0
46 0 0 0
47 0 0 0
48 0 0 0
49 0 0 0
50 0 0 0
51 0 0 0
52 0 0 0
53 0 0 0
54 0 0 0
55 0 0 0
56 0 0 0
57 0 0 0
58 0 0 0
59 0 0 0
60 0 0 0
61 0 0 0
62 0 0 0
63 0 0 0
64 0 0 0
65 0 0 0
66 0 0 0
67 0 0 0
68 0 0 0
69 0 0 0
70 0 0 0
71 0 0 0
72 0 0 0
73 0 0 0
74 0 0 0
75 0 0 0
76 0 0 0
77 0 0 0
78 0 0 0
79 0 0 0
80 0 0 0
81 0 0 0
82 0 0 0
83 0 0 0
84 0 0 0
85 0 0 0
86 0 0 0
87 0 0 0
88 0 0 0
89 0 0 0
90 0 0 0
91 0 0 0
92 0 0 0
93 0 0 0
94 0 0 0
95 0 0 0
96 0 0 0
97 0 0 0
98 0 0 0
99 0 0 0
100 0 0 0
101 0 0 0
102 0 0 0
103 0 0 0
104 0 0 0
105 0 0 0
106 0 0 0
107 0 0 0
108 0 0 0
109 0 0 0
110 0 0 0
111 0 0 0
112 0 0 0
113 0 0 0
114 0 0 0
115 0 0 0
116 0 0 0
117 0 0 0
118 0 0 0
119 0 0 0
120 0 0 0
121 0 0 0
122 0 0 0
123 0 0 0
124 0 0 0
125 0 0 0
126 0 0 0
127 0 0 0
128 0 0 0
129 0 0 0
130 0 0 0
131 0 0 0
132 0 0 0
133 0 0 0
134 0 0 0
135 0 0 0
136 0 0 0
137 0 0 0
138 0 0 0
139 0 0 0
140 0 0 0
141 0 0 0
142 0 0 0
143 0 0 0
144 0 0 0
145 0 0 0
146 0 0 0
147 0 0 0
148 0 0 0
149 0 0 0
150 0 0 0
151 0 0 0
152 0 0 0
153 0 0 0
154 0 0 0
155 0 0 0
156 0 0 0
157 0 0 0
158 0 0 0
159 0 0 0
160 0 0 0
161 0 0 0
162 0 0 0
163 0 0 0
164 0 0 0
165 0 0 0
166 0 0 0
167 0 0 0
168 0 0 0
169 0 0 0
170 0 0 0
171 0 0 0
172 0 0 0
173 0 0 0
174 0 0 0
175 0 0 0
176 0 0 0
177 0 0 0
178 0 0 0
179 0 0 0
180 0 0 0
181 0 0 0
182 0 0 0
183 0 0 0
184 0 0 0
185 0 0 0
186 0 0 0
187 0 0 0
188 0 0 0
189 0 0 0
190 0 0 0
191 0 0 0
192 0 0 0
193 0 0 0
194 0 0 0
777 0 0 0
778 0 0 0
779 0 0 0
780 0 0 0
781 0 0 0
782 0 0 0
783 0 0 0
784 0 0 0
785 0 0 0
786 0 0 0
787 0 0 0
788 0 0 0
789 0 0 0
790 0 0 0
791 0 0 0
792 0 0 0
793 0 0 0
794 0 0 0
795 0 0 0
796 0 0 0
797 0 0 0
798 0 0 0
799 0 0 0
800 0 0 0
801 0 0 0
802 0 0 0
803 0 0 0
804 0 0 0
805 0 0 0
806 0 0 0
807 0 0 0
808 0 0 0
809 0 0 0
810 0 0 0
811 0 0 0
812 0 0 0
813 0 0 0
814 0 0 0
815 0 0 0
816 0 0 0
817 0 0 0
818 0 0 0
819 0 0 0
820 0 0 0
821 0 0 0
822 0 0 0
823 0 0 0
824 0 0 0
825 0 0 0
826 0 0 0
827 0 0 0
828 0 0 0
829 0 0 0
830 0 0 0
831 0 0 0
832 0 0 0
833 0 0 0
834 0 0 0
835 0 0 0
836 0 0 0
837 0 0 0
838 0 0 0
839 0 0 0
840 0 0 0
841 0 0 0
842 0 0 0
843 0 0 0
844 0 0 0
845 0 0 0
846 0 0 0
847 0 0 0
848 0 0 0
849 0 0 0
850 0 0 0
851 0 0 0
852 0 0 0
853 0 0 0
854 0 0 0
855 0 0 0
856 0 0 0
857 0 0 0
858 0 0 0
859 0 0 0
860 0 0 0
861 0 0 0
862 0 0 0
863 0 0 0
864 0 0 0
865 0 0 0
866 0 0 0
867 0 0 0
868 0 0 0
869 0 0 0
870 0 0 0
871 0 0 0
872 0 0 0
873 0 0 0
874 0 0 0
875 0 0 0
876 0 0 0
877 0 0 0
878 0 0 0
879 0 0 0
880 0 0 0
881 0 0 0
882 0 0 0
883 0 0 0
884 0 0 0
885 0 0 0
886 0 0 0
887 0 0 0
888 0 0 0
889 0 0 0
890 0 0 0
891 0 0 0
892 0 0 0
893 0 0 0
894 0 0 0
895 0 0 0
896 0 0 0
897 0 0 0
898 0 0 0
899 0 0 0
900 0 0 0
901 0 0 0
902 0 0 0
903 0 0 0
904 0 0 0
905 0 0 0
906 0 0 0
907 0 0 0
908 0 0 0
909 0 0 0
910 0 0 0
911 0 0 0
912 0 0 0
913 0 0 0
914 0 0 0
915 0 0 0
916 0 0 0
917 0 0 0
918 0 0 0
919 0 0 0
920 0 0 0
921 0 0 0
922 0 0 0
923 0 0 0
924 0 0 0
925 0 0 0
926 0 0 0
927 0 0 0
928 0 0 0
929 0 0 0
930 0 0 0
931 0 0 0
932 0 0 0
933 0 0 0
934 0 0 0
935 0 0 0
936 0 0 0
937 0 0 0
938 0 0 0
939 0 0 0
940 0 0 0
941 0 0 0
942 0 0 0
943 0 0 0
944 0 0 0
945 0 0 0
946 0 0 0
947 0 0 0
948 0 0 0
949 0 0 0
950 0 0 0
951 0 0 0
952 0 0 0
953 0 0 0
954 0 0 0
955 0 0 0
956 0 0 0
957 0 0 0
958 0 0 0
959 0 0 0
960 0 0 0
961 0 0 0
962 0 0 0
963 0 0 0
964 0 0 0
965 0 0 0
966 0 0 0
967 0 0 0
968 0 0 0
969 0 0 0
970 0 0 0
1553 0 0 0
1554 0 0 0
1555 0 0 0
1556 0 0 0
1557 0 0 0
1558 0 0 0
1559 0 0 0
1560 0 0 0
1561 0 0 0
1562 0 0 0
1563 0 0 0
1564 0 0 0
1565 0 0 0
1566 0 0 0
1567 0 0 0
1568 0 0 0
1569 0 0 0
1570 0 0 0
1571 0 0 0
1572 0 0 0
1573 0 0 0
1574 0 0 0
1575 0 0 0
1576 0 0 0
1577 0 0 0
1578 0 0 0
1579 0 0 0
1580 0 0 0
1581 0 0 0
1582 0 0 0
1583 0 0 0
1584 0 0 0
1585 0 0 0
1586 0 0 0
1587 0 0 0
1588 0 0 0
1589 0 0 0
1590 0 0 0
1591 0 0 0
1592 0 0 0
1593 0 0 0
1594 0 0 0
1595 0 0 0
1596 0 0 0
1597 0 0 0
1598 0 0 0
1599 0 0 0
1600 0 0 0
1601 0 0 0
1602 0 0 0
1603 0 0 0
1604 0 0 0
1605 0 0 0
1606 0 0 0
1607 0 0 0
1608 0 0 0
1609 0 0 0
1610 0 0 0
1611 0 0 0
1612 0 0 0
1613 0 0 0
1614 0 0 0
1615 0 0 0
1616 0 0 0
1617 0 0 0
1618 0 0 0
1619 0 0 0
1620 0 0 0
1621 0 0 0
1622 0 0 0
1623 0 0 0
1624 0 0 0
1625 0 0 0
1626 0 0 0
1627 0 0 0
1628 0 0 0
1629 0 0 0
1630 0 0 0
1631 0 0 0
1632 0 0 0
1633 0 0 0
1634 0 0 0
1635 0 0 0
1636 0 0 0
1637 0 0 0
1638 0 0 0
1639 0 0 0
1640 0 0 0
1641 0 0 0
1642 0 0 0
1643 0 0 0
1644 0 0 0
1645 0 0 0
1646 0 0 0
1647 0 0 0
1648 0 0 0
1649 0 0 0
1650 0 0 0
1651 0 0 0
1652 0 0 0
1653 0 0 0
1654 0 0 0
1655 0 0 0
1656 0 0 0
1657 0 0 0
1658 0 0 0
1659 0 0 0
1660 0 0 0
1661 0 0 0
1662 0 0 0
1663 0 0 0
1664 0 0 0
1665 0 0 0
1666 0 0 0
1667 0 0 0
1668 0 0 0
1669 0 0 0
1670 0 0 0
1671 0 0 0
1672 0 0 0
1673 0 0 0
1674 0 0 0
1675 0 0 0
1676 0 0 0
1677 0 0 0
1678 0 0 0
1679 0 0 0
1680 0 0 0
1681 0 0 0
1682 0 0 0
1683 0 0 0
1684 0 0 0
1685 0 0 0
1686 0 0 0
1687 0 0 0
1688 0 0 0
1689 0 0 0
1690 0 0 0
1691 0 0 0
1692 0 0 0
1693 0 0 0
1694 0 0 0
1695 0 0 0
1696 0 0 0
1697 0 0 0
1698 0 0 0
1699 0 0 0
1700 0 0 0
1701 0 0 0
1702 0 0 0
1703 0 0 0
1704 0 0 0
1705 0 0 0
1706 0 0 0
1707 0 0 0
1708 0 0 0
1709 0 0 0
1710 0 0 0
1711 0 0 0
1712 0 0 0
1713 0 0 0
1714 0 0 0
1715 0 0 0
1716 0 0 0
1717 0 0 0
1718 0 0 0
1719 0 0 0
1720 0 0 0
1721 0 0 0
1722 0 0 0
1723 0 0 0
1724 0 0 0
1725 0 0 0
1726 0 0 0
1727 0 0 0
1728 0 0 0
1729 0 0 0
1730 0 0 0
1731 0 0 0
1732 0 0 0
1733 0 0 0
1734 0 0 0
1735 0 0 0
1736 0 0 0
1737 0 0 0
1738 0 0 0
1739 0 0 0
1740 0 0 0
1741 0 0 0
1742 0 0 0
1743 0 0 0
1744 0 0 0
1745 0 0 0
1746 0 0 0
2329 0 0 0
2330 0 0 0
2331 0 0 0
2332 0 0 0
2333 0 0 0
2334 0 0 0
2335 0 0 0
2336 0 0 0
2337 0 0 0
2338 0 0 0
2339 0 0 0
2340 0 0 0
2341 0 0 0
2342 0 0 0
2343 0 0 0
2344 0 0 0
2345 0 0 0
2346 0 0 0
2347 0 0 0
2348 0 0 0
2349 0 0 0
2350 0 0 0
2351 0 0 0
2352 0 0 0
2353 0 0 0
2354 0 0 0
2355 0 0 0
2356 0 0 0
2357 0 0 0
2358 0 0 0
2359 0 0 0
2360 0 0 0
2361 0 0 0
2362 0 0 0
2363 0 0 0
2364 0 0 0
2365 0 0 0
2366 0 0 0
2367 0 0 0
2368 0 0 0
2369 0 0 0
2370 0 0 0
2371 0 0 0
2372 0 0 0
2373 0 0 0
2374 0 0 0
2375 0 0 0
2376 0 0 0
2377 0 0 0
2378 0 0 0
2379 0 0 0
2380 0 0 0
2381 0 0 0
2382 0 0 0
2383 0 0 0
2384 0 0 0
2385 0 0 0
2386 0 0 0
2387 0 0 0
2388 0 0 0
2389 0 0 0
2390 0 0 0
2391 0 0 0
2392 0 0 0
2393 0 0 0
2394 0 0 0
2395 0 0 0
2396 0 0 0
2397 0 0 0
2398 0 0 0
2399 0 0 0
2400 0 0 0
2401 0 0 0
2402 0 0 0
2403 0 0 0
2404 0 0 0
2405 0 0 0
2406 0 0 0
2407 0 0 0
2408 0 0 0
2409 0 0 0
2410 0 0 0
2411 0 0 0
2412 0 0 0
2413 0 0 0
2414 0 0 0
2415 0 0 0
2416 0 0 0
2417 0 0 0
2418 0 0 0
2419 0 0 0
2420 0 0 0
2421 0 0 0
2422 0 0 0
2423 0 0 0
2424 0 0 0
2425 0 0 0
2426 0 0 0
2427 0 0 0
2428 0 0 0
2429 0 0 0
2430 0 0 0
2431 0 0 0
2432 0 0 0
2433 0 0 0
2434 0 0 0
2435 0 0 0
2436 0 0 0
2437 0 0 0
2438 0 0 0
2439 0 0 0
2440 0 0 0
2441 0 0 0
2442 0 0 0
2443 0 0 0
2444 0 0 0
2445 0 0 0
2446 0 0 0
2447 0 0 0
2448 0 0 0
2449 0 0 0
2450 0 0 0
2451 0 0 0
2452 0 0 0
2453 0 0 0
2454 0 0 0
2455 0 0 0
2456 0 0 0
2457 0 0 0
2458 0 0 0
2459 0 0 0
2460 0 0 0
2461 0 0 0
2462 0 0 0
2463 0 0 0
2464 0 0 0
2465 0 0 0
2466 0 0 0
2467 0 0 0
2468 0 0 0
2469 0 0 0
2470 0 0 0
2471 0 0 0
2472 0 0 0
2473 0 0 0
2474 0 0 0
2475 0 0 0
2476 0 0 0
2477 0 0 0
2478 0 0 0
2479 0 0 0
2480 0 0 0
2481 0 0 0
2482 0 0 0
2483 0 0 0
2484 0 0 0
2485 0 0 0
2486 0 0 0
2487 0 0 0
2488 0 0 0
2489 0 0 0
2490 0 0 0
2491 0 0 0
2492 0 0 0
2493 0 0 0
2494 0 0 0
2495 0 0 0
2496 0 0 0
2497 0 0 0
2498 0 0 0
2499 0 0 0
2500 0 0 0
2501 0 0 0
2502 0 0 0
2503 0 0 0
2504 0 0 0
2505 0 0 0
2506 0 0 0
2507 0 0 0
2508 0 0 0
2509 0 0 0
2510 0 0 0
2511 0 0 0
2512 0 0 0
2513 0 0 0
2514 0 0 0
2515 0 0 0
2516 0 0 0
2517 0 0 0
2518 0 0 0
2519 0 0 0
2520 0 0 0
2521 0 0 0
2522 0 0 0
3105 0 0 0
3106 0 0 0
3107 0 0 0
3108 0 0 0
3109 0 0 0
3110 0 0 0
3111 0 0 0
3112 0 0 0
3113 0 0 0
3114 0 0 0
3115 0 0 0
3116 0 0 0
3117 0 0 0
3118 0 0 0
3119 0 0 0
3120 0 0 0
3121 0 0 0
3122 0 0 0
3123 0 0 0
3124 0 0 0
3125 0 0 0
3126 0 0 0
3127 0 0 0
3128 0 0 0
3129 0 0 0
3130 0 0 0
3131 0 0 0
3132 0 0 0
3133 0 0 0
3134 0 0 0
3135 0 0 0
3136 0 0 0
3137 0 0 0
3138 0 0 0
3139 0 0 0
3140 0 0 0
3141 0 0 0
3142 0 0 0
3143 0 0 0
3144 0 0 0
3145 0 0 0
3146 0 0 0
3147 0 0 0
3148 0 0 0
3149 0 0 0
3150 0 0 0
3151 0 0 0
3152 0 0 0
3153 0 0 0
3154 0 0 0
3155 0 0 0
3156 0 0 0
3157 0 0 0
3158 0 0 0
3159 0 0 0
3160 0 0 0
3161 0 0 0
3162 0 0 0
3163 0 0 0
3164 0 0 0
3165 0 0 0
3166 0 0 0
3167 0 0 0
3168 0 0 0
3169 0 0 0
3170 0 0 0
3171 0 0 0
3172 0 0 0
3173 0 0 0
3174 0 0 0
3175 0 0 0
3176 0 0 0
3177 0 0 0
3178 0 0 0
3179 0 0 0
3180 0 0 0
3181 0 0 0
3182 0 0 0
3183 0 0 0
3184 0 0 0
3185 0 0 0
3186 0 0 0
3187 0 0 0
3188 0 0 0
3189 0 0 0
3190 0 0 0
3191 0 0 0
3192 0 0 0
3193 0 0 0
3194 0 0 0
3195 0 0 0
3196 0 0 0
3197 0 0 0
3198 0 0 0
3199 0 0 0
3200 0 0 0
3201 0 0 0
3202 0 0 0
3203 0 0 0
3204 0 0 0
3205 0 0 0
3206 0 0 0
3207 0 0 0
3208 0 0 0
3209 0 0 0
3210 0 0 0
3211 0 0 0
3212 0 0 0
3213 0 0 0
3214 0 0 0
3215 0 0 0
3216 0 0 0
3217 0 0 0
3218 0 0 0
3219 0 0 0
3220 0 0 0
3221 0 0 0
3222 0 0 0
3223 0 0 0
3224 0 0 0
3225 0 0 0
3226 0 0 0
3227 0 0 0
3228 0 0 0
3229 0 0 0
3230 0 0 0
3231 0 0 0
3232 0 0 0
3233 0 0 0
3234 0 0 0
3235 0 0 0
3236 0 0 0
3237 0 0 0
3238 0 0 0
3239 0 0 0
3240 0 0 0
3241 0 0 0
3242 0 0 0
3243 0 0 0
3244 0 0 0
3245 0 0 0
3246 0 0 0
3247 0 0 0
3248 0 0 0
3249 0 0 0
3250 0 0 0
3251 0 0 0
3252 0 0 0
3253 0 0 0
3254 0 0 0
3255 0 0 0
3256 0 0 0
3257 0 0 0
3258 0 0 0
3259 0 0 0
3260 0 0 0
3261 0 0 0
3262 0 0 0
3263 0 0 0
3264 0 0 0
3265 0 0 0
3266 0 0 0
3267 0 0 0
3268 0 0 0
3269 0 0 0
3270 0 0 0
3271 0 0 0
3272 0 0 0
3273 0 0 0
3274 0 0 0
3275 0 0 0
3276 0 0 0
3277 0 0 0
3278 0 0 0
3279 0 0 0
3280 0 0 0
3281 0 0 0
3282 0 0 0
3283 0 0 0
3284 0 0 0
3285 0 0 0
3286 0 0 0
3287 0 0 0
3288 0 0 0
3289 0 0 0
3290 0 0 0
3291 0 0 0
3292 0 0 0
3293 0 0 0
3294 0 0 0
3295 0 0 0
3296 0 0 0
3297 0 0 0
3298 0 0 0
3881 0 0 0
3882 0 0 0
3883 0 0 0
3884 0 0 0
3885 0 0 0
3886 0 0 0
3887 0 0 0
3888 0 0 0
3889 0 0 0
3890 0 0 0
3891 0 0 0
3892 0 0 0
3893 0 0 0
3894 0 0 0
3895 0 0 0
3896 0 0 0
3897 0 0 0
3898 0 0 0
3899 0 0 0
3900 0 0 0
3901 0 0 0
3902 0 0 0
3903 0 0 0
3904 0 0 0
3905 0 0 0
3906 0 0 0
3907 0 0 0
3908 0 0 0
3909 0 0 0
3910 0 0 0
3911 0 0 0
3912 0 0 0
3913 0 0 0
3914 0 0 0
3915 0 0 0
3916 0 0 0
3917 0 0 0
3918 0 0 0
3919 0 0 0
3920 0 0 0
3921 0 0 0
3922 0 0 0
3923 0 0 0
3924 0 0 0
3925 0 0 0
3926 0 0 0
3927 0 0 0
3928 0 0 0
3929 0 0 0
3930 0 0 0
3931 0 0 0
3932 0 0 0
3933 0 0 0
3934 0 0 0
3935 0 0 0
3936 0 0 0
3937 0 0 0
3938 0 0 0
3939 0 0 0
3940 0 0 0
3941 0 0 0
3942 0 0 0
3943 0 0 0
3944 0 0 0
3945 0 0 0
3946 0 0 0
3947 0 0 0
3948 0 0 0
3949 0 0 0
3950 0 0 0
3951 0 0 0
3952 0 0 0
3953 0 0 0
3954 0 0 0
3955 0 0 0
3956 0 0 0
3957 0 0 0
3958 0 0 0
3959 0 0 0
3960 0 0 0
3961 0 0 0
3962 0 0 0
3963 0 0 0
3964 0 0 0
3965 0 0 0
3966 0 0 0
3967 0 0 0
3968 0 0 0
3969 0 0 0
3970 0 0 0
3971 0 0 0
3972 0 0 0
3973 0 0 0
3974 0 0 0
3975 0 0 0
3976 0 0 0
3977 0 0 0
3978 0 0 0
3979 0 0 0
3980 0 0 0
3981 0 0 0
3982 0 0 0
3983 0 0 0
3984 0 0 0
3985 0 0 0
3986 0 0 0
3987 0 0 0
3988 0 0 0
3989 0 0 0
3990 0 0 0
3991 0 0 0
3992 0 0 0
3993 0 0 0
3994 0 0 0
3995 0 0 0
3996 0 0 0
3997 0 0 0
3998 0 0 0
3999 0 0 0
4000 0 0 0
4001 0 0 0
4002 0 0 0
4003 0 0 0
4004 0 0 0
4005 0 0 0
4006 0 0 0
4007 0 0 0
4008 0 0 0
4009 0 0 0
4010 0 0 0
4011 0 0 0
4012 0 0 0
4013 0 0 0
4014 0 0 0
4015 0 0 0
4016 0 0 0
4017 0 0 0
4018 0 0 0
4019 0 0 0
4020 0 0 0
4021 0 0 0
4022 0 0 0
4023 0 0 0
4024 0 0 0
4025 0 0 0
4026 0 0 0
4027 0 0 0
4028 0 0 0
4029 0 0 0
4030 0 0 0
4031 0 0 0
4032 0 0 0
4033 0 0 0
4034 0 0 0
4035 0 0 0
4036 0 0 0
4037 0 0 0
4038 0 0 0
4039 0 0 0
4040 0 0 0
4041 0 0 0
4042 0 0 0
4043 0 0 0
4044 0 0 0
4045 0 0 0
4046 0 0 0
4047 0 0 0
4048 0 0 0
4049 0 0 0
4050 0 0 0
4051 0 0 0
4052 0 0 0
4053 0 0 0
4054 0 0 0
4055 0 0 0
4056 0 0 0
4057 0 0 0
4058 0 0 0
4059 0 0 0
4060 0 0 0
4061 0 0 0
4062 0 0 0
4063 0 0 0
4064 0 0 0
4065 0 0 0
4066 0 0 0
4067 0 0 0
4068 0 0 0
4069 0 0 0
4070 0 0 0
4071 0 0 0
4072 0 0 0
4073 0 0 0
4074 0 0 0
4657 0 0 0
4658 0 0 0
4659 0 0 0
4660 0 0 0
4661 0 0 0
4662 0 0 0
4663 0 0 0
4664 0 0 0
4665 0 0 0
4666 0 0 0
4667 0 0 0
4668 0 0 0
4669 0 0 0
4670 0 0 0
4671 0 0 0
4672 0 0 0
4673 0 0 0
4674 0 0 0
4675 0 0 0
4676 0 0 0
4677 0 0 0
4678 0 0 0
4679 0 0 0
4680 0 0 0
4681 0 0 0
4682 0 0 0
4683 0 0 0
4684 0 0 0
4685 0 0 0
4686 0 0 0
4687 0 0 0
4688 0 0 0
4689 0 0 0
4690 0 0 0
4691 0 0 0
4692 0 0 0
4693 0 0 0
4694 0 0 0
4695 0 0 0
4696 0 0 0
4697 0 0 0
4698 0 0 0
4699 0 0 0
4700 0 0 0
4701 0 0 0
4702 0 0 0
4703 0 0 0
4704 0 0 0
4705 0 0 0
4706 0 0 0
4707 0 0 0
4708 0 0 0
4709 0 0 0
4710 0 0 0
4711 0 0 0
4712 0 0 0
4713 0 0 0
4714 0 0 0
4715 0 0 0
4716 0 0 0
4717 0 0 0
4718 0 0 0
4719 0 0 0
4720 0 0 0
4721 0 0 0
4722 0 0 0
4723 0 0 0
4724 0 0 0
4725 0 0 0
4726 0 0 0
4727 0 0 0
4728 0 0 0
4729 0 0 0
4730 0 0 0
4731 0 0 0
4732 0 0 0
4733 0 0 0
4734 0 0 0
4735 0 0 0
4736 0 0 0
4737 0 0 0
4738 0 0 0
4739 0 0 0
4740 0 0 0
4741 0 0 0
4742 0 0 0
4743 0 0 0
4744 0 0 0
4745 0 0 0
4746 0 0 0
4747 0 0 0
4748 0 0 0
4749 0 0 0
4750 0 0 0
4751 0 0 0
4752 0 0 0
4753 0 0 0
4754 0 0 0
4755 0 0 0
4756 0 0 0
4757 0 0 0
4758 0 0 0
4759 0 0 0
4760 0 0 0
4761 0 0 0
4762 0 0 0
4763 0 0 0
4764 0 0 0
4765 0 0 0
4766 0 0 0
4767 0 0 0
4768 0 0 0
4769 0 0 0
4770 0 0 0
4771 0 0 0
4772 0 0 0
4773 0 0 0
4774 0 0 0
4775 0 0 0
4776 0 0 0
4777 0 0 0
4778 0 0 0
4779 0 0 0
4780 0 0 0
4781 0 0 0
4782 0 0 0
4783 0 0 0
4784 0 0 0
4785 0 0 0
4786 0 0 0
4787 0 0 0
4788 0 0 0
4789 0 0 0
4790 0 0 0
4791 0 0 0
4792 0 0 0
4793 0 0 0
4794 0 0 0
4795 0 0 0
4796 0 0 0
4797 0 0 0
4798 0 0 0
4799 0 0 0
4800 0 0 0
4801 0 0 0
4802 0 0 0
4803 0 0 0
4804 0 0 0
4805 0 0 0
4806 0 0 0
4807 0 0 0
4808 0 0 0
4809 0 0 0
4810 0 0 0
4811 0 0 0
4812 0 0 0
4813 0 0 0
4814 0 0 0
4815 0 0 0
4816 0 0 0
4817 0 0 0
4818 0 0 0
4819 0 0 0
4820 0 0 0
4821 0 0 0
4822 0 0 0
4823 0 0 0
4824 0 0 0
4825 0 0 0
4826 0 0 0
4827 0 0 0
4828 0 0 0
4829 0 0 0
4830 0 0 0
4831 0 0 0
4832 0 0 0
4833 0 0 0
4834 0 0 0
4835 0 0 0
4836 0 0 0
4837 0 0 0
4838 0 0 0
4839 0 0 0
4840 0 0 0
4841 0 0 0
4842 0 0 0
4843 0 0 0
4844 0 0 0
4845 0 0 0
4846 0 0 0
4847 0 0 0
4848 0 0 0
4849 0 0 0
4850 0 0 0
5433 0 0 0
5434 0 0 0
5435 0 0 0
5436 0 0 0
5437 0 0 0
5438 0 0 0
5439 0 0 0
5440 0 0 0
5441 0 0 0
5442 0 0 0
5443 0 0 0
5444 0 0 0
5445 0 0 0
5446 0 0 0
5447 0 0 0
5448 0 0 0
5449 0 0 0
5450 0 0 0
5451 0 0 0
5452 0 0 0
5453 0 0 0
5454 0 0 0
5455 0 0 0
5456 0 0 0
5457 0 0 0
5458 0 0 0
5459 0 0 0
5460 0 0 0
5461 0 0 0
5462 0 0 0
5463 0 0 0
5464 0 0 0
5465 0 0 0
5466 0 0 0
5467 0 0 0
5468 0 0 0
5469 0 0 0
5470 0 0 0
5471 0 0 0
5472 0 0 0
5473 0 0 0
5474 0 0 0
5475 0 0 0
5476 0 0 0
5477 0 0 0
5478 0 0 0
5479 0 0 0
5480 0 0 0
5481 0 0 0
5482 0 0 0
5483 0 0 0
5484 0 0 0
5485 0 0 0
5486 0 0 0
5487 0 0 0
5488 0 0 0
5489 0 0 0
5490 0 0 0
5491 0 0 0
5492 0 0 0
5493 0 0 0
5494 0 0 0
5495 0 0 0
5496 0 0 0
5497 0 0 0
5498 0 0 0
5499 0 0 0
5500 0 0 0
5501 0 0 0
5502 0 0 0
5503 0 0 0
5504 0 0 0
5505 0 0 0
5506 0 0 0
5507 0 0 0
5508 0 0 0
5509 0 0 0
5510 0 0 0
5511 0 0 0
5512 0 0 0
5513 0 0 0
5514 0 0 0
5515 0 0 0
5516 0 0 0
5517 0 0 0
5518 0 0 0
5519 0 0 0
5520 0 0 0
5521 0 0 0
5522 0 0 0
5523 0 0 0
5524 0 0 0
5525 0 0 0
5526 0 0 0
5527 0 0 0
5528 0 0 0
5529 0 0 0
5530 0 0 0
5531 0 0 0
5532 0 0 0
5533 0 0 0
5534 0 0 0
5535 0 0 0
5536 0 0 0
5537 0 0 0
5538 0 0 0
5539 0 0 0
5540 0 0 0
5541 0 0 0
5542 0 0 0
5543 0 0 0
5544 0 0 0
5545 0 0 0
5546 0 0 0
5547 0 0 0
5548 0 0 0
5549 0 0 0
5550 0 0 0
5551 0 0 0
5552 0 0 0
5553 0 0 0
5554 0 0 0
5555 0 0 0
5556 0 0 0
5557 0 0 0
5558 0 0 0
5559 0 0 0
5560 0 0 0
5561 0 0 0
5562 0 0 0
5563 0 0 0
5564 0 0 0
5565 0 0 0
5566 0 0 0
5567 0 0 0
5568 0 0 0
5569 0 0 0
5570 0 0 0
5571 0 0 0
5572 0 0 0
5573 0 0 0
5574 0 0 0
5575 0 0 0
5576 0 0 0
5577 0 0 0
5578 0 0 0
5579 0 0 0
5580 0 0 0
5581 0 0 0
5582 0 0 0
5583 0 0 0
5584 0 0 0
5585 0 0 0
5586 0 0 0
5587 0 0 0
5588 0 0 0
5589 0 0 0
5590 0 0 0
5591 0 0 0
5592 0 0 0
5593 0 0 0
5594 0 0 0
5595 0 0 0
5596 0 0 0
5597 0 0 0
5598 0 0 0
5599 0 0 0
5600 0 0 0
5601 0 0 0
5602 0 0 0
5603 0 0 0
5604 0 0 0
5605 0 0 0
5606 0 0 0
5607 0 0 0
5608 0 0 0
5609 0 0 0
5610 0 0 0
5611 0 0 0
5612 0 0 0
5613 0 0 0
5614 0 0 0
5615 0 0 0
5616 0 0 0
5617 0 0 0
5618 0 0 0
5619 0 0 0
5620 0 0 0
5621 0 0 0
5622 0 0 0
5623 0 0 0
5624 0 0 0
5625 0 0 0
5626 0 0 0
6209 0 0 0
6210 0 0 0
6211 0 0 0
6212 0 0 0
6213 0 0 0
6214 0 0 0
6215 0 0 0
6216 0 0 0
6217 0 0 0
6218 0 0 0
6219 0 0 0
6220 0 0 0
6221 0 0 0
6222 0 0 0
6223 0 0 0
6224 0 0 0
6225 0 0 0
6226 0 0 0
6227 0 0 0
6228 0 0 0
6229 0 0 0
6230 0 0 0
6231 0 0 0
6232 0 0 0
6233 0 0 0
6234 0 0 0
6235 0 0 0
6236 0 0 0
6237 0 0 0
6238 0 0 0
6239 0 0 0
6240 0 0 0
6241 0 0 0
6242 0 0 0
6243 0 0 0
6244 0 0 0
6245 0 0 0
6246 0 0 0
6247 0 0 0
6248 0 0 0
6249 0 0 0
6250 0 0 0
6251 0 0 0
6252 0 0 0
6253 0 0 0
6254 0 0 0
6255 0 0 0
6256 0 0 0
6257 0 0 0
6258 0 0 0
6259 0 0 0
6260 0 0 0
6261 0 0 0
6262 0 0 0
6263 0 0 0
6264 0 0 0
6265 0 0 0
6266 0 0 0
6267 0 0 0
6268 0 0 0
6269 0 0 0
6270 0 0 0
6271 0 0 0
6272 0 0 0
6273 0 0 0
6274 0 0 0
6275 0 0 0
6276 0 0 0
6277 0 0 0
6278 0 0 0
6279 0 0 0
6280 0 0 0
6281 0 0 0
6282 0 0 0
6283 0 0 0
6284 0 0 0
6285 0 0 0
6286 0 0 0
6287 0 0 0
6288 0 0 0
6289 0 0 0
6290 0 0 0
6291 0 0 0
6292 0 0 0
6293 0 0 0
6294 0 0 0
6295 0 0 0
6296 0 0 0
6297 0 0 0
6298 0 0 0
6299 0 0 0
6300 0 0 0
6301 0 0 0
6302 0 0 0
6303 0 0 0
6304 0 0 0
6305 0 0 0
6306 0 0 0
6307 0 0 0
6308 0 0 0
6309 0 0 0
6310 0 0 0
6311 0 0 0
6312 0 0 0
6313 0 0 0
6314 0 0 0
6315 0 0 0
6316 0 0 0
6317 0 0 0
6318 0 0 0
6319 0 0 0
6320 0 0 0
6321 0 0 0
6322 0 0 0
6323 0 0 0
6324 0 0 0
6325 0 0 0
6326 0 0 0
6327 0 0 0
6328 0 0 0
6329 0 0 0
6330 0 0 0
6331 0 0 0
6332 0 0 0
6333 0 0 0
6334 0 0 0
6335 0 0 0
6336 0 0 0
6337 0 0 0
6338 0 0 0
6339 0 0 0
6340 0 0 0
6341 0 0 0
6342 0 0 0
6343 0 0 0
6344 0 0 0
6345 0 0 0
6346 0 0 0
6347 0 0 0
6348 0 0 0
6349 0 0 0
6350 0 0 0
6351 0 0 0
6352 0 0 0
6353 0 0 0
6354 0 0 0
6355 0 0 0
6356 0 0 0
6357 0 0 0
6358 0 0 0
6359 0 0 0
6360 0 0 0
6361 0 0 0
6362 0 0 0
6363 0 0 0
6364 0 0 0
6365 0 0 0
6366 0 0 0
6367 0 0 0
6368 0 0 0
6369 0 0 0
6370 0 0 0
6371 0 0 0
6372 0 0 0
6373 0 0 0
6374 0 0 0
6375 0 0 0
6376 0 0 0
6377 0 0 0
6378 0 0 0
6379 0 0 0
6380 0 0 0
6381 0 0 0
6382 0 0 0
6383 0 0 0
6384 0 0 0
6385 0 0 0
6386 0 0 0
6387 0 0 0
6388 0 0 0
6389 0 0 0
6390 0 0 0
6391 0 0 0
6392 0 0 0
6393 0 0 0
6394 0 0 0
6395 0 0 0
6396 0 0 0
6397 0 0 0
6398 0 0 0
6399 0 0 0
6400 0 0 0
6401 0 0 0
6402 0 0 0
6985 0 0 0
6986 0 0 0
6987 0 0 0
6988 0 0 0
6989 0 0 0
6990 0 0 0
6991 0 0 0
6992 0 0 0
6993 0 0 0
6994 0 0 0
6995 0 0 0
6996 0 0 0
6997 0 0 0
6998 0 0 0
6999 0 0 0
7000 0 0 0
7001 0 0 0
7002 0 0 0
7003 0 0 0
7004 0 0 0
7005 0 0 0
7006 0 0 0
7007 0 0 0
7008 0 0 0
7009 0 0 0
7010 0 0 0
7011 0 0 0
7012 0 0 0
7013 0 0 0
7014 0 0 0
7015 0 0 0
7016 0 0 0
7017 0 0 0
7018 0 0 0
7019 0 0 0
7020 0 0 0
7021 0 0 0
7022 0 0 0
7023 0 0 0
7024 0 0 0
7025 0 0 0
7026 0 0 0
7027 0 0 0
7028 0 0 0
7029 0 0 0
7030 0 0 0
7031 0 0 0
7032 0 0 0
7033 0 0 0
7034 0 0 0
7035 0 0 0
7036 0 0 0
7037 0 0 0
7038 0 0 0
7039 0 0 0
7040 0 0 0
7041 0 0 0
7042 0 0 0
7043 0 0 0
7044 0 0 0
7045 0 0 0
7046 0 0 0
7047 0 0 0
7048 0 0 0
7049 0 0 0
7050 0 0 0
7051 0 0 0
7052 0 0 0
7053 0 0 0
7054 0 0 0
7055 0 0 0
7056 0 0 0
7057 0 0 0
7058 0 0 0
7059 0 0 0
7060 0 0 0
7061 0 0 0
7062 0 0 0
7063 0 0 0
7064 0 0 0
7065 0 0 0
7066 0 0 0
7067 0 0 0
7068 0 0 0
7069 0 0 0
7070 0 0 0
7071 0 0 0
7072 0 0 0
7073 0 0 0
7074 0 0 0
7075 0 0 0
7076 0 0 0
7077 0 0 0
7078 0 0 0
7079 0 0 0
7080 0 0 0
7081 0 0 0
7082 0 0 0
7083 0 0 0
7084 0 0 0
7085 0 0 0
7086 0 0 0
7087 0 0 0
7088 0 0 0
7089 0 0 0
7090 0 0 0
7091 0 0 0
7092 0 0 0
7093 0 0 0
7094 0 0 0
7095 0 0 0
7096 0 0 0
7097 0 0 0
7098 0 0 0
7099 0 0 0
7100 0 0 0
7101 0 0 0
7102 0 0 0
7103 0 0 0
7104 0 0 0
7105 0 0 0
7106 0 0 0
7107 0 0 0
7108 0 0 0
7109 0 0 0
7110 0 0 0
7111 0 0 0
7112 0 0 0
7113 0 0 0
7114 0 0 0
7115 0 0 0
7116 0 0 0
7117 0 0 0
7118 0 0 0
7119 0 0 0
7120 0 0 0
7121 0 0 0
7122 0 0 0
7123 0 0 0
7124 0 0 0
7125 0 0 0
7126 0 0 0
7127 0 0 0
7128 0 0 0
7129 0 0 0
7130 0 0 0
7131 0 0 0
7132 0 0 0
7133 0 0 0
7134 0 0 0
7135 0 0 0
7136 0 0 0
7137 0 0 0
7138 0 0 0
7139 0 0 0
7140 0 0 0
7141 0 0 0
7142 0 0 0
7143 0 0 0
7144 0 0 0
7145 0 0 0
7146 0 0 0
7147 0 0 0
7148 0 0 0
7149 0 0 0
7150 0 0 0
7151 0 0 0
7152 0 0 0
7153 0 0 0
7154 0 0 0
7155 0 0 0
7156 0 0 0
7157 0 0 0
7158 0 0 0
7159 0 0 0
7160 0 0 0
7161 0 0 0
7162 0 0 0
7163 0 0 0
7164 0 0 0
7165 0 0 0
7166 0 0 0
7167 0 0 0
7168 0 0 0
7169 0 0 0
7170 0 0 0
7171 0 0 0
7172 0 0 0
7173 0 0 0
7174 0 0 0
7175 0 0 0
7176 0 0 0
7177 0 0 0
7178 0 0 0
7761 0 0 0
7762 0 0 0
7763 0 0 0
7764 0 0 0
7765 0 0 0
7766 0 0 0
7767 0 0 0
7768 0 0 0
7769 0 0 0
7770 0 0 0
7771 0 0 0
7772 0 0 0
7773 0 0 0
7774 0 0 0
7775 0 0 0
7776 0 0 0
7777 0 0 0
7778 0 0 0
7779 0 0 0
7780 0 0 0
7781 0 0 0
7782 0 0 0
7783 0 0 0
7784 0 0 0
7785 0 0 0
7786 0 0 0
7787 0 0 0
7788 0 0 0
7789 0 0 0
7790 0 0 0
7791 0 0 0
7792 0 0 0
7793 0 0 0
7794 0 0 0
7795 0 0 0
7796 0 0 0
7797 0 0 0
7798 0 0 0
7799 0 0 0
7800 0 0 0
7801 0 0 0
7802 0 0 0
7803 0 0 0
7804 0 0 0
7805 0 0 0
7806 0 0 0
7807 0 0 0
7808 0 0 0
7809 0 0 0
7810 0 0 0
7811 0 0 0
7812 0 0 0
7813 0 0 0
7814 0 0 0
7815 0 0 0
7816 0 0 0
7817 0 0 0
7818 0 0 0
7819 0 0 0
7820 0 0 0
7821 0 0 0
7822 0 0 0
7823 0 0 0
7824 0 0 0
7825 0 0 0
7826 0 0 0
7827 0 0 0
7828 0 0 0
7829 0 0 0
7830 0 0 0
7831 0 0 0
7832 0 0 0
7833 0 0 0
7834 0 0 0
7835 0 0 0
7836 0 0 0
7837 0 0 0
7838 0 0 0
7839 0 0 0
7840 0 0 0
7841 0 0 0
7842 0 0 0
7843 0 0 0
7844 0 0 0
7845 0 0 0
7846 0 0 0
7847 0 0 0
7848 0 0 0
7849 0 0 0
7850 0 0 0
7851 0 0 0
7852 0 0 0
7853 0 0 0
7854 0 0 0
7855 0 0 0
7856 0 0 0
7857 0 0 0
7858 0 0 0
7859 0 0 0
7860 0 0 0
7861 0 0 0
7862 0 0 0
7863 0 0 0
7864 0 0 0
7865 0 0 0
7866 0 0 0
7867 0 0 0
7868 0 0 0
7869 0 0 0
7870 0 0 0
7871 0 0 0
7872 0 0 0
7873 0 0 0
7874 0 0 0
7875 0 0 0
7876 0 0 0
7877 0 0 0
7878 0 0 0
7879 0 0 0
7880 0 0 0
7881 0 0 0
7882 0 0 0
7883 0 0 0
7884 0 0 0
7885 0 0 0
7886 0 0 0
7887 0 0 0
7888 0 0 0
7889 0 0 0
7890 0 0 0
7891 0 0 0
7892 0 0 0
7893 0 0 0
7894 0 0 0
7895 0 0 0
7896 0 0 0
7897 0 0 0
7898 0 0 0
7899 0 0 0
7900 0 0 0
7901 0 0 0
7902 0 0 0
7903 0 0 0
7904 0 0 0
7905 0 0 0
7906 0 0 0
7907 0 0 0
7908 0 0 0
7909 0 0 0
7910 0 0 0
7911 0 0 0
7912 0 0 0
7913 0 0 0
7914 0 0 0
7915 0 0 0
7916 0 0 0
7917 0 0 0
7918 0 0 0
7919 0 0 0
7920 0 0 0
7921 0 0 0
7922 0 0 0
7923 0 0 0
7924 0 0 0
7925 0 0 0
7926 0 0 0
7927 0 0 0
7928 0 0 0
7929 0 0 0
7930 0 0 0
7931 0 0 0
7932 0 0 0
7933 0 0 0
7934 0 0 0
7935 0 0 0
7936 0 0 0
7937 0 0 0
7938 0 0 0
7939 0 0 0
7940 0 0 0
7941 0 0 0
7942 0 0 0
7943 0 0 0
7944 0 0 0
7945 0 0 0
7946 0 0 0
7947 0 0 0
7948 0 0 0
7949 0 0 0
7950 0 0 0
7951 0 0 0
7952 0 0 0
7953 0 0 0
7954 0 0 0
195 0 0 0
196 0 0 0
197 0 0 0
198 0 0 0
199 0 0 0
200 0 0 0
201 0 0 0
202 0 0 0
203 0 0 0
204 0 0 0
205 0 0 0
206 0 0 0
207 0 0 0
208 0 0 0
209 0 0 0
210 0 0 0
211 0 0 0
212 0 0 0
213 0 0 0
214 0 0 0
215 0 0 0
216 0 0 0
217 0 0 0
218 0 0 0
219 0 0 0
220 0 0 0
221 0 0 0
222 0 0 0
223 0 0 0
224 0 0 0
225 0 0 0
226 0 0 0
227 0 0 0
228 0 0 0
229 0 0 0
230 0 0 0
231 0 0 0
232 0 0 0
233 0 0 0
234 0 0 0
235 0 0 0
236 0 0 0
237 0 0 0
238 0 0 0
239 0 0 0
240 0 0 0
241 0 0 0
242 0 0 0
243 0 0 0
244 0 0 0
245 0 0 0
246 0 0 0
247 0 0 0
248 0 0 0
249 0 0 0
250 0 0 0
251 0 0 0
252 0 0 0
253 0 0 0
254 0 0 0
255 0 0 0
256 0 0 0
257 0 0 0
258 0 0 0
259 0 0 0
260 0 0 0
261 0 0 0
262 0 0 0
263 0 0 0
264 0 0 0
265 0 0 0
266 0 0 0
267 0 0 0
268 0 0 0
269 0 0 0
270 0 0 0
271 0 0 0
272 0 0 0
273 0 0 0
274 0 0 0
275 0 0 0
276 0 0 0
277 0 0 0
278 0 0 0
279 0 0 0
280 0 0 0
281 0 0 0
282 0 0 0
283 0 0 0
284 0 0 0
285 0 0 0
286 0 0 0
287 0 0 0
288 0 0 0
289 0 0 0
290 0 0 0
291 0 0 0
292 0 0 0
293 0 0 0
294 0 0 0
295 0 0 0
296 0 0 0
297 0 0 0
298 0 0 0
299 0 0 0
300 0 0 0
301 0 0 0
302 0 0 0
303 0 0 0
304 0 0 0
305 0 0 0
306 0 0 0
307 0 0 0
308 0 0 0
309 0 0 0
310 0 0 0
311 0 0 0
312 0 0 0
313 0 0 0
314 0 0 0
315 0 0 0
316 0 0 0
317 0 0 0
318 0 0 0
319 0 0 0
320 0 0 0
321 0 0 0
322 0 0 0
323 0 0 0
324 0 0 0
325 0 0 0
326 0 0 0
327 0 0 0
328 0 0 0
329 0 0 0
330 0 0 0
331 0 0 0
332 0 0 0
333 0 0 0
334 0 0 0
335 0 0 0
336 0 0 0
337 0 0 0
338 0 0 0
339 0 0 0
340 0 0 0
341 0 0 0
342 0 0 0
343 0 0 0
344 0 0 0
345 0 0 0
346 0 0 0
347 0 0 0
348 0 0 0
349 0 0 0
350 0 0 0
351 0 0 0
352 0 0 0
353 0 0 0
354 0 0 0
355 0 0 0
356 0 0 0
357 0 0 0
358 0 0 0
359 0 0 0
360 0 0 0
361 0 0 0
362 0 0 0
363 0 0 0
364 0 0 0
365 0 0 0
366 0 0 0
367 0 0 0
368 0 0 0
369 0 0 0
370 0 0 0
371 0 0 0
372 0 0 0
373 0 0 0
374 0 0 0
375 0 0 0
376 0 0 0
377 0 0 0
378 0 0 0
379 0 0 0
380 0 0 0
381 0 0 0
382 0 0 0
383 0 0 0
384 0 0 0
385 0 0 0
386 0 0 0
387 0 0 0
388 0 0 0
971 0 0 0
972 0 0 0
973 0 0 0
974 0 0 0
975 0 0 0
976 0 0 0
977 0 0 0
978 0 0 0
979 0 0 0
980 0 0 0
981 0 0 0
982 0 0 0
983 0 0 0
984 0 0 0
985 0 0 0
986 0 0 0
987 0 0 0
988 0 0 0
989 0 0 0
990 0 0 0
991 0 0 0
992 0 0 0
993 0 0 0
994 0 0 0
995 0 0 0
996 0 0 0
997 0 0 0
998 0 0 0
999 0 0 0
1000 0 0 0
1001 0 0 0
1002 0 0 0
1003 0 0 0
1004 0 0 0
1005 0 0 0
1006 0 0 0
1007 0 0 0
1008 0 0 0
1009 0 0 0
1010 0 0 0
1011 0 0 0
1012 0 0 0
1013 0 0 0
1014 0 0 0
1015 0 0 0
1016 0 0 0
1017 0 0 0
1018 0 0 0
1019 0 0 0
1020 0 0 0
1021 0 0 0
1022 0 0 0
1023 0 0 0
1024 0 0 0
1025 0 0 0
1026 0 0 0
1027 0 0 0
1028 0 0 0
1029 0 0 0
1030 0 0 0
1031 0 0 0
1032 0 0 0
1033 0 0 0
1034 0 0 0
1035 0 0 0
1036 0 0 0
1037 0 0 0
1038 0 0 0
1039 0 0 0
1040 0 0 0
1041 0 0 0
1042 0 0 0
1043 0 0 0
1044 0 0 0
1045 0 0 0
1046 0 0 0
1047 0 0 0
1048 0 0 0
1049 0 0 0
1050 0 0 0
1051 0 0 0
1052 0 0 0
1053 0 0 0
1054 0 0 0
1055 0 0 0
1056 0 0 0
1057 0 0 0
1058 0 0 0
1059 0 0 0
1060 0 0 0
1061 0 0 0
1062 0 0 0
1063 0 0 0
1064 0 0 0
1065 0 0 0
1066 0 0 0
1067 0 0 0
1068 0 0 0
1069 0 0 0
1070 0 0 0
1071 0 0 0
1072 0 0 0
1073 0 0 0
1074 0 0 0
1075 0 0 0
1076 0 0 0
1077 0 0 0
1078 0 0 0
1079 0 0 0
1080 0 0 0
1081 0 0 0
1082 0 0 0
1083 0 0 0
1084 0 0 0
1085 0 0 0
1086 0 0 0
1087 0 0 0
1088 0 0 0
1089 0 0 0
1090 0 0 0
1091 0 0 0
1092 0 0 0
1093 0 0 0
1094 0 0 0
1095 0 0 0
1096 0 0 0
1097 0 0 0
1098 0 0 0
1099 0 0 0
1100 0 0 0
1101 0 0 0
1102 0 0 0
1103 0 0 0
1104 0 0 0
1105 0 0 0
1106 0 0 0
1107 0 0 0
1108 0 0 0
1109 0 0 0
1110 0 0 0
1111 0 0 0
1112 0 0 0
1113 0 0 0
1114 0 0 0
1115 0 0 0
1116 0 0 0
1117 0 0 0
1118 0 0 0
1119 0 0 0
1120 0 0 0
1121 0 0 0
1122 0 0 0
1123 0 0 0
1124 0 0 0
1125 0 0 0
1126 0 0 0
1127 0 0 0
1128 0 0 0
1129 0 0 0
1130 0 0 0
1131 0 0 0
1132 0 0 0
1133 0 0 0
1134 0 0 0
1135 0 0 0
1136 0 0 0
1137 0 0 0
1138 0 0 0
1139 0 0 0
1140 0 0 0
1141 0 0 0
1142 0 0 0
1143 0 0 0
1144 0 0 0
1145 0 0 0
1146 0 0 0
1147 0 0 0
1148 0 0 0
1149 0 0 0
1150 0 0 0
1151 0 0 0
1152 0 0 0
1153 0 0 0
1154 0 0 0
1155 0 0 0
1156 0 0 0
1157 0 0 0
1158 0 0 0
1159 0 0 0
1160 0 0 0
1161 0 0 0
1162 0 0 0
1163 0 0 0
1164 0 0 0
1747 0 0 0
1748 0 0 0
1749 0 0 0
1750 0 0 0
1751 0 0 0
1752 0 0 0
1753 0 0 0
1754 0 0 0
1755 0 0 0
1756 0 0 0
1757 0 0 0
1758 0 0 0
1759 0 0 0
1760 0 0 0
1761 0 0 0
1762 0 0 0
1763 0 0 0
1764 0 0 0
1765 0 0 0
1766 0 0 0
1767 0 0 0
1768 0 0 0
1769 0 0 0
1770 0 0 0
1771 0 0 0
1772 0 0 0
1773 0 0 0
1774 0 0 0
1775 0 0 0
1776 0 0 0
1777 0 0 0
1778 0 0 0
1779 0 0 0
1780 0 0 0
1781 0 0 0
1782 0 0 0
1783 0 0 0
1784 0 0 0
1785 0 0 0
1786 0 0 0
1787 0 0 0
1788 0 0 0
1789 0 0 0
1790 0 0 0
1791 0 0 0
1792 0 0 0
1793 0 0 0
1794 0 0 0
1795 0 0 0
1796 0 0 0
1797 0 0 0
1798 0 0 0
1799 0 0 0
1800 0 0 0
1801 0 0 0
1802 0 0 0
1803 0 0 0
1804 0 0 0
1805 0 0 0
1806 0 0 0
1807 0 0 0
1808 0 0 0
1809 0 0 0
1810 0 0 0
1811 0 0 0
1812 0 0 0
1813 0 0 0
1814 0 0 0
1815 0 0 0
1816 0 0 0
1817 0 0 0
1818 0 0 0
1819 0 0 0
1820 0 0 0
1821 0 0 0
1822 0 0 0
1823 0 0 0
1824 0 0 0
1825 0 0 0
1826 0 0 0
1827 0 0 0
1828 0 0 0
1829 0 0 0
1830 0 0 0
1831 0 0 0
1832 0 0 0
1833 0 0 0
1834 0 0 0
1835 0 0 0
1836 0 0 0
1837 0 0 0
1838 0 0 0
1839 0 0 0
1840 0 0 0
1841 0 0 0
1842 0 0 0
1843 0 0 0
1844 0 0 0
1845 0 0 0
1846 0 0 0
1847 0 0 0
1848 0 0 0
1849 0 0 0
1850 0 0 0
1851 0 0 0
1852 0 0 0
1853 0 0 0
1854 0 0 0
1855 0 0 0
1856 0 0 0
1857 0 0 0
1858 0 0 0
1859 0 0 0
1860 0 0 0
1861 0 0 0
1862 0 0 0
1863 0 0 0
1864 0 0 0
1865 0 0 0
1866 0 0 0
1867 0 0 0
1868 0 0 0
1869 0 0 0
1870 0 0 0
1871 0 0 0
1872 0 0 0
1873 0 0 0
1874 0 0 0
1875 0 0 0
1876 0 0 0
1877 0 0 0
1878 0 0 0
1879 0 0 0
1880 0 0 0
1881 0 0 0
1882 0 0 0
1883 0 0 0
1884 0 0 0
1885 0 0 0
1886 0 0 0
1887 0 0 0
1888 0 0 0
1889 0 0 0
1890 0 0 0
1891 0 0 0
1892 0 0 0
1893 0 0 0
1894 0 0 0
1895 0 0 0
1896 0 0 0
1897 0 0 0
1898 0 0 0
1899 0 0 0
1900 0 0 0
1901 0 0 0
1902 0 0 0
1903 0 0 0
1904 0 0 0
1905 0 0 0
1906 0 0 0
1907 0 0 0
1908 0 0 0
1909 0 0 0
1910 0 0 0
1911 0 0 0
1912 0 0 0
1913 0 0 0
1914 0 0 0
1915 0 0 0
1916 0 0 0
1917 0 0 0
1918 0 0 0
1919 0 0 0
1920 0 0 0
1921 0 0 0
1922 0 0 0
1923 0 0 0
1924 0 0 0
1925 0 0 0
1926 0 0 0
1927 0 0 0
1928 0 0 0
1929 0 0 0
1930 0 0 0
1931 0 0 0
1932 0 0 0
1933 0 0 0
1934 0 0 0
1935 0 0 0
1936 0 0 0
1937 0 0 0
1938 0 0 0
1939 0 0 0
1940 0 0 0
2523 0 0 0
2524 0 0 0
2525 0 0 0
2526 0 0 0
2527 0 0 0
2528 0 0 0
2529 0 0 0
2530 0 0 0
2531 0 0 0
2532 0 0 0
2533 0 0 0
2534 0 0 0
2535 0 0 0
2536 0 0 0
2537 0 0 0
2538 0 0 0
2539 0 0 0
2540 0 0 0
2541 0 0 0
2542 0 0 0
2543 0 0 0
2544 0 0 0
2545 0 0 0
2546 0 0 0
2547 0 0 0
2548 0 0 0
2549 0 0 0
2550 0 0 0
2551 0 0 0
2552 0 0 0
2553 0 0 0
2554 0 0 0
2555 0 0 0
2556 0 0 0
2557 0 0 0
2558 0 0 0
2559 0 0 0
2560 0 0 0
2561 0 0 0
2562 0 0 0
2563 0 0 0
2564 0 0 0
2565 0 0 0
2566 0 0 0
2567 0 0 0
2568 0 0 0
2569 0 0 0
2570 0 0 0
2571 0 0 0
2572 0 0 0
2573 0 0 0
2574 0 0 0
2575 0 0 0
2576 0 0 0
2577 0 0 0
2578 0 0 0
2579 0 0 0
2580 0 0 0
2581 0 0 0
2582 0 0 0
2583 0 0 0
2584 0 0 0
2585 0 0 0
2586 0 0 0
2587 0 0 0
2588 0 0 0
2589 0 0 0
2590 0 0 0
2591 0 0 0
2592 0 0 0
2593 0 0 0
2594 0 0 0
2595 0 0 0
2596 0 0 0
2597 0 0 0
2598 0 0 0
2599 0 0 0
2600 0 0 0
2601 0 0 0
2602 0 0 0
2603 0 0 0
2604 0 0 0
2605 0 0 0
2606 0 0 0
2607 0 0 0
2608 0 0 0
2609 0 0 0
2610 0 0 0
2611 0 0 0
2612 0 0 0
2613 0 0 0
2614 0 0 0
2615 0 0 0
2616 0 0 0
2617 0 0 0
2618 0 0 0
2619 0 0 0
2620 0 0 0
2621 0 0 0
2622 0 0 0
2623 0 0 0
2624 0 0 0
2625 0 0 0
2626 0 0 0
2627 0 0 0
2628 0 0 0
2629 0 0 0
2630 0 0 0
2631 0 0 0
2632 0 0 0
2633 0 0 0
2634 0 0 0
2635 0 0 0
2636 0 0 0
2637 0 0 0
2638 0 0 0
2639 0 0 0
2640 0 0 0
2641 0 0 0
2642 0 0 0
2643 0 0 0
2644 0 0 0
2645 0 0 0
2646 0 0 0
2647 0 0 0
2648 0 0 0
2649 0 0 0
2650 0 0 0
2651 0 0 0
2652 0 0 0
2653 0 0 0
2654 0 0 0
2655 0 0 0
2656 0 0 0
2657 0 0 0
2658 0 0 0
2659 0 0 0
2660 0 0 0
2661 0 0 0
2662 0 0 0
2663 0 0 0
2664 0 0 0
2665 0 0 0
2666 0 0 0
2667 0 0 0
2668 0 0 0
2669 0 0 0
2670 0 0 0
2671 0 0 0
2672 0 0 0
2673 0 0 0
2674 0 0 0
2675 0 0 0
2676 0 0 0
2677 0 0 0
2678 0 0 0
2679 0 0 0
2680 0 0 0
2681 0 0 0
2682 0 0 0
2683 0 0 0
2684 0 0 0
2685 0 0 0
2686 0 0 0
2687 0 0 0
2688 0 0 0
2689 0 0 0
2690 0 0 0
2691 0 0 0
2692 0 0 0
2693 0 0 0
2694 0 0 0
2695 0 0 0
2696 0 0 0
2697 0 0 0
2698 0 0 0
2699 0 0 0
2700 0 0 0
2701 0 0 0
2702 0 0 0
2703 0 0 0
2704 0 0 0
2705 0 0 0
2706 0 0 0
2707 0 0 0
2708 0 0 0
2709 0 0 0
2710 0 0 0
2711 0 0 0
2712 0 0 0
2713 0 0 0
2714 0 0 0
2715 0 0 0
2716 0 0 0
3299 0 0 0
3300 0 0 0
3301 0 0 0
3302 0 0 0
3303 0 0 0
3304 0 0 0
3305 0 0 0
3306 0 0 0
3307 0 0 0
3308 0 0 0
3309 0 0 0
3310 0 0 0
3311 0 0 0
3312 0 0 0
3313 0 0 0
3314 0 0 0
3315 0 0 0
3316 0 0 0
3317 0 0 0
3318 0 0 0
3319 0 0 0
3320 0 0 0
3321 0 0 0
3322 0 0 0
3323 0 0 0
3324 0 0 0
3325 0 0 0
3326 0 0 0
3327 0 0 0
3328 0 0 0
3329 0 0 0
3330 0 0 0
3331 0 0 0
3332 0 0 0
3333 0 0 0
3334 0 0 0
3335 0 0 0
3336 0 0 0
3337 0 0 0
3338 0 0 0
3339 0 0 0
3340 0 0 0
3341 0 0 0
3342 0 0 0
3343 0 0 0
3344 0 0 0
3345 0 0 0
3346 0 0 0
3347 0 0 0
3348 0 0 0
3349 0 0 0
3350 0 0 0
3351 0 0 0
3352 0 0 0
3353 0 0 0
3354 0 0 0
3355 0 0 0
3356 0 0 0
3357 0 0 0
3358 0 0 0
3359 0 0 0
3360 0 0 0
3361 0 0 0
3362 0 0 0
3363 0 0 0
3364 0 0 0
3365 0 0 0
3366 0 0 0
3367 0 0 0
3368 0 0 0
3369 0 0 0
3370 0 0 0
3371 0 0 0
3372 0 0 0
3373 0 0 0
3374 0 0 0
3375 0 0 0
3376 0 0 0
3377 0 0 0
3378 0 0 0
3379 0 0 0
3380 0 0 0
3381 0 0 0
3382 0 0 0
3383 0 0 0
3384 0 0 0
3385 0 0 0
3386 0 0 0
3387 0 0 0
3388 0 0 0
3389 0 0 0
3390 0 0 0
3391 0 0 0
3392 0 0 0
3393 0 0 0
3394 0 0 0
3395 0 0 0
3396 0 0 0
3397 0 0 0
3398 0 0 0
3399 0 0 0
3400 0 0 0
3401 0 0 0
3402 0 0 0
3403 0 0 0
3404 0 0 0
3405 0 0 0
3406 0 0 0
3407 0 0 0
3408 0 0 0
3409 0 0 0
3410 0 0 0
3411 0 0 0
3412 0 0 0
3413 0 0 0
3414 0 0 0
3415 0 0 0
3416 0 0 0
3417 0 0 0
3418 0 0 0
3419 0 0 0
3420 0 0 0
3421 0 0 0
3422 0 0 0
3423 0 0 0
3424 0 0 0
3425 0 0 0
3426 0 0 0
3427 0 0 0
3428 0 0 0
3429 0 0 0
3430 0 0 0
3431 0 0 0
3432 0 0 0
3433 0 0 0
3434 0 0 0
3435 0 0 0
3436 0 0 0
3437 0 0 0
3438 0 0 0
3439 0 0 0
3440 0 0 0
3441 0 0 0
3442 0 0 0
3443 0 0 0
3444 0 0 0
3445 0 0 0
3446 0 0 0
3447 0 0 0
3448 0 0 0
3449 0 0 0
3450 0 0 0
3451 0 0 0
3452 0 0 0
3453 0 0 0
3454 0 0 0
3455 0 0 0
3456 0 0 0
3457 0 0 0
3458 0 0 0
3459 0 0 0
3460 0 0 0
3461 0 0 0
3462 0 0 0
3463 0 0 0
3464 0 0 0
3465 0 0 0
3466 0 0 0
3467 0 0 0
3468 0 0 0
3469 0 0 0
3470 0 0 0
3471 0 0 0
3472 0 0 0
3473 0 0 0
3474 0 0 0
3475 0 0 0
3476 0 0 0
3477 0 0 0
3478 0 0 0
3479 0 0 0
3480 0 0 0
3481 0 0 0
3482 0 0 0
3483 0 0 0
3484 0 0 0
3485 0 0 0
3486 0 0 0
3487 0 0 0
3488 0 0 0
3489 0 0 0
3490 0 0 0
3491 0 0 0
3492 0 0 0
4075 0 0 0
4076 0 0 0
4077 0 0 0
4078 0 0 0
4079 0 0 0
4080 0 0 0
4081 0 0 0
4082 0 0 0
4083 0 0 0
4084 0 0 0
4085 0 0 0
4086 0 0 0
4087 0 0 0
4088 0 0 0
4089 0 0 0
4090 0 0 0
4091 0 0 0
4092 0 0 0
4093 0 0 0
4094 0 0 0
4095 0 0 0
4096 0 0 0
4097 0 0 0
4098 0 0 0
4099 0 0 0
4100 0 0 0
4101 0 0 0
4102 0 0 0
4103 0 0 0
4104 0 0 0
4105 0 0 0
4106 0 0 0
4107 0 0 0
4108 0 0 0
4109 0 0 0
4110 0 0 0
4111 0 0 0
4112 0 0 0
4113 0 0 0
4114 0 0 0
4115 0 0 0
4116 0 0 0
4117 0 0 0
4118 0 0 0
4119 0 0 0
4120 0 0 0
4121 0 0 0
4122 0 0 0
4123 0 0 0
4124 0 0 0
4125 0 0 0
4126 0 0 0
4127 0 0 0
4128 0 0 0
4129 0 0 0
4130 0 0 0
4131 0 0 0
4132 0 0 0
4133 0 0 0
4134 0 0 0
4135 0 0 0
4136 0 0 0
4137 0 0 0
4138 0 0 0
4139 0 0 0
4140 0 0 0
4141 0 0 0
4142 0 0 0
4143 0 0 0
4144 0 0 0
4145 0 0 0
4146 0 0 0
4147 0 0 0
4148 0 0 0
4149 0 0 0
4150 0 0 0
4151 0 0 0
4152 0 0 0
4153 0 0 0
4154 0 0 0
4155 0 0 0
4156 0 0 0
4157 0 0 0
4158 0 0 0
4159 0 0 0
4160 0 0 0
4161 0 0 0
4162 0 0 0
4163 0 0 0
4164 0 0 0
4165 0 0 0
4166 0 0 0
4167 0 0 0
4168 0 0 0
4169 0 0 0
4170 0 0 0
4171 0 0 0
4172 0 0 0
4173 0 0 0
4174 0 0 0
4175 0 0 0
4176 0 0 0
4177 0 0 0
4178 0 0 0
4179 0 0 0
4180 0 0 0
4181 0 0 0
4182 0 0 0
4183 0 0 0
4184 0 0 0
4185 0 0 0
4186 0 0 0
4187 0 0 0
4188 0 0 0
4189 0 0 0
4190 0 0 0
4191 0 0 0
4192 0 0 0
4193 0 0 0
4194 0 0 0
4195 0 0 0
4196 0 0 0
4197 0 0 0
4198 0 0 0
4199 0 0 0
4200 0 0 0
4201 0 0 0
4202 0 0 0
4203 0 0 0
4204 0 0 0
4205 0 0 0
4206 0 0 0
4207 0 0 0
4208 0 0 0
4209 0 0 0
4210 0 0 0
4211 0 0 0
4212 0 0 0
4213 0 0 0
4214 0 0 0
4215 0 0 0
4216 0 0 0
4217 0 0 0
4218 0 0 0
4219 0 0 0
4220 0 0 0
4221 0 0 0
4222 0 0 0
4223 0 0 0
4224 0 0 0
4225 0 0 0
4226 0 0 0
4227 0 0 0
4228 0 0 0
4229 0 0 0
4230 0 0 0
4231 0 0 0
4232 0 0 0
4233 0 0 0
4234 0 0 0
4235 0 0 0
4236 0 0 0
4237 0 0 0
4238 0 0 0
4239 0 0 0
4240 0 0 0
4241 0 0 0
4242 0 0 0
4243 0 0 0
4244 0 0 0
4245 0 0 0
4246 0 0 0
4247 0 0 0
4248 0 0 0
4249 0 0 0
4250 0 0 0
4251 0 0 0
4252 0 0 0
4253 0 0 0
4254 0 0 0
4255 0 0 0
4256 0 0 0
4257 0 0 0
4258 0 0 0
4259 0 0 0
4260 0 0 0
4261 0 0 0
4262 0 0 0
4263 0 0 0
4264 0 0 0
4265 0 0 0
4266 0 0 0
4267 0 0 0
4268 0 0 0
4851 0 0 0
4852 0 0 0
4853 0 0 0
4854 0 0 0
4855 0 0 0
4856 0 0 0
4857 0 0 0
4858 0 0 0
4859 0 0 0
4860 0 0 0
4861 0 0 0
4862 0 0 0
4863 0 0 0
4864 0 0 0
4865 0 0 0
4866 0 0 0
4867 0 0 0
4868 0 0 0
4869 0 0 0
4870 0 0 0
4871 0 0 0
4872 0 0 0
4873 0 0 0
4874 0 0 0
4875 0 0 0
4876 0 0 0
4877 0 0 0
4878 0 0 0
4879 0 0 0
4880 0 0 0
4881 0 0 0
4882 0 0 0
4883 0 0 0
4884 0 0 0
4885 0 0 0
4886 0 0 0
4887 0 0 0
4888 0 0 0
4889 0 0 0
4890 0 0 0
4891 0 0 0
4892 0 0 0
4893 0 0 0
4894 0 0 0
4895 0 0 0
4896 0 0 0
4897 0 0 0
4898 0 0 0
4899 0 0 0
4900 0 0 0
4901 0 0 0
4902 0 0 0
4903 0 0 0
4904 0 0 0
4905 0 0 0
4906 0 0 0
4907 0 0 0
4908 0 0 0
4909 0 0 0
4910 0 0 0
4911 0 0 0
4912 0 0 0
4913 0 0 0
4914 0 0 0
4915 0 0 0
4916 0 0 0
4917 0 0 0
4918 0 0 0
4919 0 0 0
4920 0 0 0
4921 0 0 0
4922 0 0 0
4923 0 0 0
4924 0 0 0
4925 0 0 0
4926 0 0 0
4927 0 0 0
4928 0 0 0
4929 0 0 0
4930 0 0 0
4931 0 0 0
4932 0 0 0
4933 0 0 0
4934 0 0 0
4935 0 0 0
4936 0 0 0
4937 0 0 0
4938 0 0 0
4939 0 0 0
4940 0 0 0
4941 0 0 0
4942 0 0 0
4943 0 0 0
4944 0 0 0
4945 0 0 0
4946 0 0 0
4947 0 0 0
4948 0 0 0
4949 0 0 0
4950 0 0 0
4951 0 0 0
4952 0 0 0
4953 0 0 0
4954 0 0 0
4955 0 0 0
4956 0 0 0
4957 0 0 0
4958 0 0 0
4959 0 0 0
4960 0 0 0
4961 0 0 0
4962 0 0 0
4963 0 0 0
4964 0 0 0
4965 0 0 0
4966 0 0 0
4967 0 0 0
4968 0 0 0
4969 0 0 0
4970 0 0 0
4971 0 0 0
4972 0 0 0
4973 0 0 0
4974 0 0 0
4975 0 0 0
4976 0 0 0
4977 0 0 0
4978 0 0 0
4979 0 0 0
4980 0 0 0
4981 0 0 0
4982 0 0 0
4983 0 0 0
4984 0 0 0
4985 0 0 0
4986 0 0 0
4987 0 0 0
4988 0 0 0
4989 0 0 0
4990 0 0 0
4991 0 0 0
4992 0 0 0
4993 0 0 0
4994 0 0 0
4995 0 0 0
4996 0 0 0
4997 0 0 0
4998 0 0 0
4999 0 0 0
5000 0 0 0
5001 0 0 0
5002 0 0 0
5003 0 0 0
5004 0 0 0
5005 0 0 0
5006 0 0 0
5007 0 0 0
5008 0 0 0
5009 0 0 0
5010 0 0 0
5011 0 0 0
5012 0 0 0
5013 0 0 0
5014 0 0 0
5015 0 0 0
5016 0 0 0
5017 0 0 0
5018 0 0 0
5019 0 0 0
5020 0 0 0
5021 0 0 0
5022 0 0 0
5023 0 0 0
5024 0 0 0
5025 0 0 0
5026 0 0 0
5027 0 0 0
5028 0 0 0
5029 0 0 0
5030 0 0 0
5031 0 0 0
5032 0 0 0
5033 0 0 0
5034 0 0 0
5035 0 0 0
5036 0 0 0
5037 0 0 0
5038 0 0 0
5039 0 0 0
5040 0 0 0
5041 0 0 0
5042 0 0 0
5043 0 0 0
5044 0 0 0
5627 0 0 0
5628 0 0 0
5629 0 0 0
5630 0 0 0
5631 0 0 0
5632 0 0 0
5633 0 0 0
5634 0 0 0
5635 0 0 0
5636 0 0 0
5637 0 0 0
5638 0 0 0
5639 0 0 0
5640 0 0 0
5641 0 0 0
5642 0 0 0
5643 0 0 0
5644 0 0 0
5645 0 0 0
5646 0 0 0
5647 0 0 0
5648 0 0 0
5649 0 0 0
5650 0 0 0
5651 0 0 0
5652 0 0 0
5653 0 0 0
5654 0 0 0
5655 0 0 0
5656 0 0 0
5657 0 0 0
5658 0 0 0
5659 0 0 0
5660 0 0 0
5661 0 0 0
5662 0 0 0
5663 0 0 0
5664 0 0 0
5665 0 0 0
5666 0 0 0
5667 0 0 0
5668 0 0 0
5669 0 0 0
5670 0 0 0
5671 0 0 0
5672 0 0 0
5673 0 0 0
5674 0 0 0
5675 0 0 0
5676 0 0 0
5677 0 0 0
5678 0 0 0
5679 0 0 0
5680 0 0 0
5681 0 0 0
5682 0 0 0
5683 0 0 0
5684 0 0 0
5685 0 0 0
5686 0 0 0
5687 0 0 0
5688 0 0 0
5689 0 0 0
5690 0 0 0
5691 0 0 0
5692 0 0 0
5693 0 0 0
5694 0 0 0
5695 0 0 0
5696 0 0 0
5697 0 0 0
5698 0 0 0
5699 0 0 0
5700 0 0 0
5701 0 0 0
5702 0 0 0
5703 0 0 0
5704 0 0 0
5705 0 0 0
5706 0 0 0
5707 0 0 0
5708 0 0 0
5709 0 0 0
5710 0 0 0
5711 0 0 0
5712 0 0 0
5713 0 0 0
5714 0 0 0
5715 0 0 0
5716 0 0 0
5717 0 0 0
5718 0 0 0
5719 0 0 0
5720 0 0 0
5721 0 0 0
5722 0 0 0
5723 0 0 0
5724 0 0 0
5725 0 0 0
5726 0 0 0
5727 0 0 0
5728 0 0 0
5729 0 0 0
5730 0 0 0
5731 0 0 0
5732 0 0 0
5733 0 0 0
5734 0 0 0
5735 0 0 0
5736 0 0 0
5737 0 0 0
5738 0 0 0
5739 0 0 0
5740 0 0 0
5741 0 0 0
5742 0 0 0
5743 0 0 0
5744 0 0 0
5745 0 0 0
5746 0 0 0
5747 0 0 0
5748 0 0 0
5749 0 0 0
5750 0 0 0
5751 0 0 0
5752 0 0 0
5753 0 0 0
5754 0 0 0
5755 0 0 0
5756 0 0 0
5757 0 0 0
5758 0 0 0
5759 0 0 0
5760 0 0 0
5761 0 0 0
5762 0 0 0
5763 0 0 0
5764 0 0 0
5765 0 0 0
5766 0 0 0
5767 0 0 0
5768 0 0 0
5769 0 0 0
5770 0 0 0
5771 0 0 0
5772 0 0 0
5773 0 0 0
5774 0 0 0
5775 0 0 0
5776 0 0 0
5777 0 0 0
5778 0 0 0
5779 0 0 0
5780 0 0 0
5781 0 0 0
5782 0 0 0
5783 0 0 0
5784 0 0 0
5785 0 0 0
5786 0 0 0
5787 0 0 0
5788 0 0 0
5789 0 0 0
5790 0 0 0
5791 0 0 0
5792 0 0 0
5793 0 0 0
5794 0 0 0
5795 0 0 0
5796 0 0 0
5797 0 0 0
5798 0 0 0
5799 0 0 0
5800 0 0 0
5801 0 0 0
5802 0 0 0
5803 0 0 0
5804 0 0 0
5805 0 0 0
5806 0 0 0
5807 0 0 0
5808 0 0 0
5809 0 0 0
5810 0 0 0
5811 0 0 0
5812 0 0 0
5813 0 0 0
5814 0 0 0
5815 0 0 0
5816 0 0 0
5817 0 0 0
5818 0 0 0
5819 0 0 0
5820 0 0 0
6403 0 0 0
6404 0 0 0
6405 0 0 0
6406 0 0 0
6407 0 0 0
6408 0 0 0
6409 0 0 0
6410 0 0 0
6411 0 0 0
6412 0 0 0
6413 0 0 0
6414 0 0 0
6415 0 0 0
6416 0 0 0
6417 0 0 0
6418 0 0 0
6419 0 0 0
6420 0 0 0
6421 0 0 0
6422 0 0 0
6423 0 0 0
6424 0 0 0
6425 0 0 0
6426 0 0 0
6427 0 0 0
6428 0 0 0
6429 0 0 0
6430 0 0 0
6431 0 0 0
6432 0 0 0
6433 0 0 0
6434 0 0 0
6435 0 0 0
6436 0 0 0
6437 0 0 0
6438 0 0 0
6439 0 0 0
6440 0 0 0
6441 0 0 0
6442 0 0 0
6443 0 0 0
6444 0 0 0
6445 0 0 0
6446 0 0 0
6447 0 0 0
6448 0 0 0
6449 0 0 0
6450 0 0 0
6451 0 0 0
6452 0 0 0
6453 0 0 0
6454 0 0 0
6455 0 0 0
6456 0 0 0
6457 0 0 0
6458 0 0 0
6459 0 0 0
6460 0 0 0
6461 0 0 0
6462 0 0 0
6463 0 0 0
6464 0 0 0
6465 0 0 0
6466 0 0 0
6467 0 0 0
6468 0 0 0
6469 0 0 0
6470 0 0 0
6471 0 0 0
6472 0 0 0
6473 0 0 0
6474 0 0 0
6475 0 0 0
6476 0 0 0
6477 0 0 0
6478 0 0 0
6479 0 0 0
6480 0 0 0
6481 0 0 0
6482 0 0 0
6483 0 0 0
6484 0 0 0
6485 0 0 0
6486 0 0 0
6487 0 0 0
6488 0 0 0
6489 0 0 0
6490 0 0 0
6491 0 0 0
6492 0 0 0
6493 0 0 0
6494 0 0 0
6495 0 0 0
6496 0 0 0
6497 0 0 0
6498 0 0 0
6499 0 0 0
6500 0 0 0
6501 0 0 0
6502 0 0 0
6503 0 0 0
6504 0 0 0
6505 0 0 0
6506 0 0 0
6507 0 0 0
6508 0 0 0
6509 0 0 0
6510 0 0 0
6511 0 0 0
6512 0 0 0
6513 0 0 0
6514 0 0 0
6515 0 0 0
6516 0 0 0
6517 0 0 0
6518 0 0 0
6519 0 0 0
6520 0 0 0
6521 0 0 0
6522 0 0 0
6523 0 0 0
6524 0 0 0
6525 0 0 0
6526 0 0 0
6527 0 0 0
6528 0 0 0
6529 0 0 0
6530 0 0 0
6531 0 0 0
6532 0 0 0
6533 0 0 0
6534 0 0 0
6535 0 0 0
6536 0 0 0
6537 0 0 0
6538 0 0 0
6539 0 0 0
6540 0 0 0
6541 0 0 0
6542 0 0 0
6543 0 0 0
6544 0 0 0
6545 0 0 0
6546 0 0 0
6547 0 0 0
6548 0 0 0
6549 0 0 0
6550 0 0 0
6551 0 0 0
6552 0 0 0
6553 0 0 0
6554 0 0 0
6555 0 0 0
6556 0 0 0
6557 0 0 0
6558 0 0 0
6559 0 0 0
6560 0 0 0
6561 0 0 0
6562 0 0 0
6563 0 0 0
6564 0 0 0
6565 0 0 0
6566 0 0 0
6567 0 0 0
6568 0 0 0
6569 0 0 0
6570 0 0 0
6571 0 0 0
6572 0 0 0
6573 0 0 0
6574 0 0 0
6575 0 0 0
6576 0 0 0
6577 0 0 0
6578 0 0 0
6579 0 0 0
6580 0 0 0
6581 0 0 0
6582 0 0 0
6583 0 0 0
6584 0 0 0
6585 0 0 0
6586 0 0 0
6587 0 0 0
6588 0 0 0
6589 0 0 0
6590 0 0 0
6591 0 0 0
6592 0 0 0
6593 0 0 0
6594 0 0 0
6595 0 0 0
6596 0 0 0
7179 0 0 0
7180 0 0 0
7181 0 0 0
7182 0 0 0
7183 0 0 0
7184 0 0 0
7185 0 0 0
7186 0 0 0
7187 0 0 0
7188 0 0 0
7189 0 0 0
7190 0 0 0
7191 0 0 0
7192 0 0 0
7193 0 0 0
7194 0 0 0
7195 0 0 0
7196 0 0 0
7197 0 0 0
7198 0 0 0
7199 0 0 0
7200 0 0 0
7201 0 0 0
7202 0 0 0
7203 0 0 0
7204 0 0 0
7205 0 0 0
7206 0 0 0
7207 0 0 0
7208 0 0 0
7209 0 0 0
7210 0 0 0
7211 0 0 0
7212 0 0 0
7213 0 0 0
7214 0 0 0
7215 0 0 0
7216 0 0 0
7217 0 0 0
7218 0 0 0
7219 0 0 0
7220 0 0 0
7221 0 0 0
7222 0 0 0
7223 0 0 0
7224 0 0 0
7225 0 0 0
7226 0 0 0
7227 0 0 0
7228 0 0 0
7229 0 0 0
7230 0 0 0
7231 0 0 0
7232 0 0 0
7233 0 0 0
7234 0 0 0
7235 0 0 0
7236 0 0 0
7237 0 0 0
7238 0 0 0
7239 0 0 0
7240 0 0 0
7241 0 0 0
7242 0 0 0
7243 0 0 0
7244 0 0 0
7245 0 0 0
7246 0 0 0
7247 0 0 0
7248 0 0 0
7249 0 0 0
7250 0 0 0
7251 0 0 0
7252 0 0 0
7253 0 0 0
7254 0 0 0
7255 0 0 0
7256 0 0 0
7257 0 0 0
7258 0 0 0
7259 0 0 0
7260 0 0 0
7261 0 0 0
7262 0 0 0
7263 0 0 0
7264 0 0 0
7265 0 0 0
7266 0 0 0
7267 0 0 0
7268 0 0 0
7269 0 0 0
7270 0 0 0
7271 0 0 0
7272 0 0 0
7273 0 0 0
7274 0 0 0
7275 0 0 0
7276 0 0 0
7277 0 0 0
7278 0 0 0
7279 0 0 0
7280 0 0 0
7281 0 0 0
7282 0 0 0
7283 0 0 0
7284 0 0 0
7285 0 0 0
7286 0 0 0
7287 0 0 0
7288 0 0 0
7289 0 0 0
7290 0 0 0
7291 0 0 0
7292 0 0 0
7293 0 0 0
7294 0 0 0
7295 0 0 0
7296 0 0 0
7297 0 0 0
7298 0 0 0
7299 0 0 0
7300 0 0 0
7301 0 0 0
7302 0 0 0
7303 0 0 0
7304 0 0 0
7305 0 0 0
7306 0 0 0
7307 0 0 0
7308 0 0 0
7309 0 0 0
7310 0 0 0
7311 0 0 0
7312 0 0 0
7313 0 0 0
7314 0 0 0
7315 0 0 0
7316 0 0 0
7317 0 0 0
7318 0 0 0
7319 0 0 0
7320 0 0 0
7321 0 0 0
7322 0 0 0
7323 0 0 0
7324 0 0 0
7325 0 0 0
7326 0 0 0
7327 0 0 0
7328 0 0 0
7329 0 0 0
7330 0 0 0
7331 0 0 0
7332 0 0 0
7333 0 0 0
7334 0 0 0
7335 0 0 0
7336 0 0 0
7337 0 0 0
7338 0 0 0
7339 0 0 0
7340 0 0 0
7341 0 0 0
7342 0 0 0
7343 0 0 0
7344 0 0 0
7345 0 0 0
7346 0 0 0
7347 0 0 0
7348 0 0 0
7349 0 0 0
7350 0 0 0
7351 0 0 0
7352 0 0 0
7353 0 0 0
7354 0 0 0
7355 0 0 0
7356 0 0 0
7357 0 0 0
7358 0 0 0
7359 0 0 0
7360 0 0 0
7361 0 0 0
7362 0 0 0
7363 0 0 0
7364 0 0 0
7365 0 0 0
7366 0 0 0
7367 0 0 0
7368 0 0 0
7369 0 0 0
7370 0 0 0
7371 0 0 0
7372 0 0 0
7955 0 0 0
7956 0 0 0
7957 0 0 0
7958 0 0 0
7959 0 0 0
7960 0 0 0
7961 0 0 0
7962 0 0 0
7963 0 0 0
7964 0 0 0
7965 0 0 0
7966 0 0 0
7967 0 0 0
7968 0 0 0
7969 0 0 0
7970 0 0 0
7971 0 0 0
7972 0 0 0
7973 0 0 0
7974 0 0 0
7975 0 0 0
7976 0 0 0
7977 0 0 0
7978 0 0 0
7979 0 0 0
7980 0 0 0
7981 0 0 0
7982 0 0 0
7983 0 0 0
7984 0 0 0
7985 0 0 0
7986 0 0 0
7987 0 0 0
7988 0 0 0
7989 0 0 0
7990 0 0 0
7991 0 0 0
7992 0 0 0
7993 0 0 0
7994 0 0 0
7995 0 0 0
7996 0 0 0
7997 0 0 0
7998 0 0 0
7999 0 0 0
8000 0 0 0
8001 0 0 0
8002 0 0 0
8003 0 0 0
8004 0 0 0
8005 0 0 0
8006 0 0 0
8007 0 0 0
8008 0 0 0
8009 0 0 0
8010 0 0 0
8011 0 0 0
8012 0 0 0
8013 0 0 0
8014 0 0 0
8015 0 0 0
8016 0 0 0
8017 0 0 0
8018 0 0 0
8019 0 0 0
8020 0 0 0
8021 0 0 0
8022 0 0 0
8023 0 0 0
8024 0 0 0
8025 0 0 0
8026 0 0 0
8027 0 0 0
8028 0 0 0
8029 0 0 0
8030 0 0 0
8031 0 0 0
8032 0 0 0
8033 0 0 0
8034 0 0 0
8035 0 0 0
8036 0 0 0
8037 0 0 0
8038 0 0 0
8039 0 0 0
8040 0 0 0
8041 0 0 0
8042 0 0 0
8043 0 0 0
8044 0 0 0
8045 0 0 0
8046 0 0 0
8047 0 0 0
8048 0 0 0
8049 0 0 0
8050 0 0 0
8051 0 0 0
8052 0 0 0
8053 0 0 0
8054 0 0 0
8055 0 0 0
8056 0 0 0
8057 0 0 0
8058 0 0 0
8059 0 0 0
8060 0 0 0
8061 0 0 0
8062 0 0 0
8063 0 0 0
8064 0 0 0
8065 0 0 0
8066 0 0 0
8067 0 0 0
8068 0 0 0
8069 0 0 0
8070 0 0 0
8071 0 0 0
8072 0 0 0
8073 0 0 0
8074 0 0 0
8075 0 0 0
8076 0 0 0
8077 0 0 0
8078 0 0 0
8079 0 0 0
8080 0 0 0
8081 0 0 0
8082 0 0 0
8083 0 0 0
8084 0 0 0
8085 0 0 0
8086 0 0 0
8087 0 0 0
8088 0 0 0
8089 0 0 0
8090 0 0 0
8091 0 0 0
8092 0 0 0
8093 0 0 0
8094 0 0 0
8095 0 0 0
8096 0 0 0
8097 0 0 0
8098 0 0 0
8099 0 0 0
8100 0 0 0
8101 0 0 0
8102 0 0 0
8103 0 0 0
8104 0 0 0
8105 0 0 0
8106 0 0 0
8107 0 0 0
8108 0 0 0
8109 0 0 0
8110 0 0 0
8111 0 0 0
8112 0 0 0
8113 0 0 0
8114 0 0 0
8115 0 0 0
8116 0 0 0
8117 0 0 0
8118 0 0 0
8119 0 0 0
8120 0 0 0
8121 0 0 0
8122 0 0 0
8123 0 0 0
8124 0 0 0
8125 0 0 0
8126 0 0 0
8127 0 0 0
8128 0 0 0
8129 0 0 0
8130 0 0 0
8131 0 0 0
8132 0 0 0
8133 0 0 0
8134 0 0 0
8135 0 0 0
8136 0 0 0
8137 0 0 0
8138 0 0 0
8139 0 0 0
8140 0 0 0
8141 0 0 0
8142 0 0 0
8143 0 0 0
8144 0 0 0
8145 0 0 0
8146 0 0 0
8147 0 0 0
8148 0 0 0
389 0 0 0
390 0 0 0
391 0 0 0
392 0 0 0
393 0 0 0
394 0 0 0
395 0 0 0
396 0 0 0
397 0 0 0
398 0 0 0
399 0 0 0
400 0 0 0
401 0 0 0
402 0 0 0
403 0 0 0
404 0 0 0
405 0 0 0
406 0 0 0
407 0 0 0
408 0 0 0
409 0 0 0
410 0 0 0
411 0 0 0
412 0 0 0
413 0 0 0
414 0 0 0
415 0 0 0
416 0 0 0
417 0 0 0
418 0 0 0
419 0 0 0
420 0 0 0
421 0 0 0
422 0 0 0
423 0 0 0
424 0 0 0
425 0 0 0
426 0 0 0
427 0 0 0
428 0 0 0
429 0 0 0
430 0 0 0
431 0 0 0
432 0 0 0
433 0 0 0
434 0 0 0
435 0 0 0
436 0 0 0
437 0 0 0
438 0 0 0
439 0 0 0
440 0 0 0
441 0 0 0
442 0 0 0
443 0 0 0
444 0 0 0
445 0 0 0
446 0 0 0
447 0 0 0
448 0 0 0
449 0 0 0
450 0 0 0
451 0 0 0
452 0 0 0
453 0 0 0
454 0 0 0
455 0 0 0
456 0 0 0
457 0 0 0
458 0 0 0
459 0 0 0
460 0 0 0
461 0 0 0
462 0 0 0
463 0 0 0
464 0 0 0
465 0 0 0
466 0 0 0
467 0 0 0
468 0 0 0
469 0 0 0
470 0 0 0
471 0 0 0
472 0 0 0
473 0 0 0
474 0 0 0
475 0 0 0
476 0 0 0
477 0 0 0
478 0 0 0
479 0 0 0
480 0 0 0
481 0 0 0
482 0 0 0
483 0 0 0
484 0 0 0
485 0 0 0
486 0 0 0
487 0 0 0
488 0 0 0
489 0 0 0
490 0 0 0
491 0 0 0
492 0 0 0
493 0 0 0
494 0 0 0
495 0 0 0
496 0 0 0
497 0 0 0
498 0 0 0
499 0 0 0
500 0 0 0
501 0 0 0
502 0 0 0
503 0 0 0
504 0 0 0
505 0 0 0
506 0 0 0
507 0 0 0
508 0 0 0
509 0 0 0
510 0 0 0
511 0 0 0
512 0 0 0
513 0 0 0
514 0 0 0
515 0 0 0
516 0 0 0
517 0 0 0
518 0 0 0
519 0 0 0
520 0 0 0
521 0 0 0
522 0 0 0
523 0 0 0
524 0 0 0
525 0 0 0
526 0 0 0
527 0 0 0
528 0 0 0
529 0 0 0
530 0 0 0
531 0 0 0
532 0 0 0
533 0 0 0
534 0 0 0
535 0 0 0
536 0 0 0
537 0 0 0
538 0 0 0
539 0 0 0
540 0 0 0
541 0 0 0
542 0 0 0
543 0 0 0
544 0 0 0
545 0 0 0
546 0 0 0
547 0 0 0
548 0 0 0
549 0 0 0
550 0 0 0
551 0 0 0
552 0 0 0
553 0 0 0
554 0 0 0
555 0 0 0
556 0 0 0
557 0 0 0
558 0 0 0
559 0 0 0
560 0 0 0
561 0 0 0
562 0 0 0
563 0 0 0
564 0 0 0
565 0 0 0
566 0 0 0
567 0 0 0
568 0 0 0
569 0 0 0
570 0 0 0
571 0 0 0
572 0 0 0
573 0 0 0
574 0 0 0
575 0 0 0
576 0 0 0
577 0 0 0
578 0 0 0
579 0 0 0
580 0 0 0
581 0 0 0
582 0 0 0
1165 0 0 0
1166 0 0 0
1167 0 0 0
1168 0 0 0
1169 0 0 0
1170 0 0 0
1171 0 0 0
1172 0 0 0
1173 0 0 0
1174 0 0 0
1175 0 0 0
1176 0 0 0
1177 0 0 0
1178 0 0 0
1179 0 0 0
1180 0 0 0
1181 0 0 0
1182 0 0 0
1183 0 0 0
1184 0 0 0
1185 0 0 0
1186 0 0 0
1187 0 0 0
1188 0 0 0
1189 0 0 0
1190 0 0 0
1191 0 0 0
1192 0 0 0
1193 0 0 0
1194 0 0 0
1195 0 0 0
1196 0 0 0
1197 0 0 0
1198 0 0 0
1199 0 0 0
1200 0 0 0
1201 0 0 0
1202 0 0 0
1203 0 0 0
1204 0 0 0
1205 0 0 0
1206 0 0 0
1207 0 0 0
1208 0 0 0
1209 0 0 0
1210 0 0 0
1211 0 0 0
1212 0 0 0
1213 0 0 0
1214 0 0 0
1215 0 0 0
1216 0 0 0
1217 0 0 0
1218 0 0 0
1219 0 0 0
1220 0 0 0
1221 0 0 0
1222 0 0 0
1223 0 0 0
1224 0 0 0
1225 0 0 0
1226 0 0 0
1227 0 0 0
1228 0 0 0
1229 0 0 0
1230 0 0 0
1231 0 0 0
1232 0 0 0
1233 0 0 0
1234 0 0 0
1235 0 0 0
1236 0 0 0
1237 0 0 0
1238 0 0 0
1239 0 0 0
1240 0 0 0
1241 0 0 0
1242 0 0 0
1243 0 0 0
1244 0 0 0
1245 0 0 0
1246 0 0 0
1247 0 0 0
1248 0 0 0
1249 0 0 0
1250 0 0 0
1251 0 0 0
1252 0 0 0
1253 0 0 0
1254 0 0 0
1255 0 0 0
1256 0 0 0
1257 0 0 0
1258 0 0 0
1259 0 0 0
1260 0 0 0
1261 0 0 0
1262 0 0 0
1263 0 0 0
1264 0 0 0
1265 0 0 0
1266 0 0 0
1267 0 0 0
1268 0 0 0
1269 0 0 0
1270 0 0 0
1271 0 0 0
1272 0 0 0
1273 0 0 0
1274 0 0 0
1275 0 0 0
1276 0 0 0
1277 0 0 0
1278 0 0 0
1279 0 0 0
1280 0 0 0
1281 0 0 0
1282 0 0 0
1283 0 0 0
1284 0 0 0
1285 0 0 0
1286 0 0 0
1287 0 0 0
1288 0 0 0
1289 0 0 0
1290 0 0 0
1291 0 0 0
1292 0 0 0
1293 0 0 0
1294 0 0 0
1295 0 0 0
1296 0 0 0
1297 0 0 0
1298 0 0 0
1299 0 0 0
1300 0 0 0
1301 0 0 0
1302 0 0 0
1303 0 0 0
1304 0 0 0
1305 0 0 0
1306 0 0 0
1307 0 0 0
1308 0 0 0
1309 0 0 0
1310 0 0 0
1311 0 0 0
1312 0 0 0
1313 0 0 0
1314 0 0 0
1315 0 0 0
1316 0 0 0
1317 0 0 0
1318 0 0 0
1319 0 0 0
1320 0 0 0
1321 0 0 0
1322 0 0 0
1323 0 0 0
1324 0 0 0
1325 0 0 0
1326 0 0 0
1327 0 0 0
1328 0 0 0
1329 0 0 0
1330 0 0 0
1331 0 0 0
1332 0 0 0
1333 0 0 0
1334 0 0 0
1335 0 0 0
1336 0 0 0
1337 0 0 0
1338 0 0 0
1339 0 0 0
1340 0 0 0
1341 0 0 0
1342 0 0 0
1343 0 0 0
1344 0 0 0
1345 0 0 0
1346 0 0 0
1347 0 0 0
1348 0 0 0
1349 0 0 0
1350 0 0 0
1351 0 0 0
1352 0 0 0
1353 0 0 0
1354 0 0 0
1355 0 0 0
1356 0 0 0
1357 0 0 0
1358 0 0 0
1941 0 0 0
1942 0 0 0
1943 0 0 0
1944 0 0 0
1945 0 0 0
1946 0 0 0
1947 0 0 0
1948 0 0 0
1949 0 0 0
1950 0 0 0
1951 0 0 0
1952 0 0 0
1953 0 0 0
1954 0 0 0
1955 0 0 0
1956 0 0 0
1957 0 0 0
1958 0 0 0
1959 0 0 0
1960 0 0 0
1961 0 0 0
1962 0 0 0
1963 0 0 0
1964 0 0 0
1965 0 0 0
1966 0 0 0
1967 0 0 0
1968 0 0 0
1969 0 0 0
1970 0 0 0
1971 0 0 0
1972 0 0 0
1973 0 0 0
1974 0 0 0
1975 0 0 0
1976 0 0 0
1977 0 0 0
1978 0 0 0
1979 0 0 0
1980 0 0 0
1981 0 0 0
1982 0 0 0
1983 0 0 0
1984 0 0 0
1985 0 0 0
1986 0 0 0
1987 0 0 0
1988 0 0 0
1989 0 0 0
1990 0 0 0
1991 0 0 0
1992 0 0 0
1993 0 0 0
1994 0 0 0
1995 0 0 0
1996 0 0 0
1997 0 0 0
1998 0 0 0
1999 0 0 0
2000 0 0 0
2001 0 0 0
2002 0 0 0
2003 0 0 0
2004 0 0 0
2005 0 0 0
2006 0 0 0
2007 0 0 0
2008 0 0 0
2009 0 0 0
2010 0 0 0
2011 0 0 0
2012 0 0 0
2013 0 0 0
2014 0 0 0
2015 0 0 0
2016 0 0 0
2017 0 0 0
2018 0 0 0
2019 0 0 0
2020 0 0 0
2021 0 0 0
2022 0 0 0
2023 0 0 0
2024 0 0 0
2025 0 0 0
2026 0 0 0
2027 0 0 0
2028 0 0 0
2029 0 0 0
2030 0 0 0
2031 0 0 0
2032 0 0 0
2033 0 0 0
2034 0 0 0
2035 0 0 0
2036 0 0 0
2037 0 0 0
2038 0 0 0
2039 0 0 0
2040 0 0 0
2041 0 0 0
2042 0 0 0
2043 0 0 0
2044 0 0 0
2045 0 0 0
2046 0 0 0
2047 0 0 0
2048 0 0 0
2049 0 0 0
2050 0 0 0
2051 0 0 0
2052 0 0 0
2053 0 0 0
2054 0 0 0
2055 0 0 0
2056 0 0 0
2057 0 0 0
2058 0 0 0
2059 0 0 0
2060 0 0 0
2061 0 0 0
2062 0 0 0
2063 0 0 0
2064 0 0 0
2065 0 0 0
2066 0 0 0
2067 0 0 0
2068 0 0 0
2069 0 0 0
2070 0 0 0
2071 0 0 0
2072 0 0 0
2073 0 0 0
2074 0 0 0
2075 0 0 0
2076 0 0 0
2077 0 0 0
2078 0 0 0
2079 0 0 0
2080 0 0 0
2081 0 0 0
2082 0 0 0
2083 0 0 0
2084 0 0 0
2085 0 0 0
2086 0 0 0
2087 0 0 0
2088 0 0 0
2089 0 0 0
2090 0 0 0
2091 0 0 0
2092 0 0 0
2093 0 0 0
2094 0 0 0
2095 0 0 0
2096 0 0 0
2097 0 0 0
2098 0 0 0
2099 0 0 0
2100 0 0 0
2101 0 0 0
2102 0 0 0
2103 0 0 0
2104 0 0 0
2105 0 0 0
2106 0 0 0
2107 0 0 0
2108 0 0 0
2109 0 0 0
2110 0 0 0
2111 0 0 0
2112 0 0 0
2113 0 0 0
2114 0 0 0
2115 0 0 0
2116 0 0 0
2117 0 0 0
2118 0 0 0
2119 0 0 0
2120 0 0 0
2121 0 0 0
2122 0 0 0
2123 0 0 0
2124 0 0 0
2125 0 0 0
2126 0 0 0
2127 0 0 0
2128 0 0 0
2129 0 0 0
2130 0 0 0
2131 0 0 0
2132 0 0 0
2133 0 0 0
2134 0 0 0
2717 0 0 0
2718 0 0 0
2719 0 0 0
2720 0 0 0
2721 0 0 0
2722 0 0 0
2723 0 0 0
2724 0 0 0
2725 0 0 0
2726 0 0 0
2727 0 0 0
2728 0 0 0
2729 0 0 0
2730 0 0 0
2731 0 0 0
2732 0 0 0
2733 0 0 0
2734 0 0 0
2735 0 0 0
2736 0 0 0
2737 0 0 0
2738 0 0 0
2739 0 0 0
2740 0 0 0
2741 0 0 0
2742 0 0 0
2743 0 0 0
2744 0 0 0
2745 0 0 0
2746 0 0 0
2747 0 0 0
2748 0 0 0
2749 0 0 0
2750 0 0 0
2751 0 0 0
2752 0 0 0
2753 0 0 0
2754 0 0 0
2755 0 0 0
2756 0 0 0
2757 0 0 0
2758 0 0 0
2759 0 0 0
2760 0 0 0
2761 0 0 0
2762 0 0 0
2763 0 0 0
2764 0 0 0
2765 0 0 0
2766 0 0 0
2767 0 0 0
2768 0 0 0
2769 0 0 0
2770 0 0 0
2771 0 0 0
2772 0 0 0
2773 0 0 0
2774 0 0 0
2775 0 0 0
2776 0 0 0
2777 0 0 0
2778 0 0 0
2779 0 0 0
2780 0 0 0
2781 0 0 0
2782 0 0 0
2783 0 0 0
2784 0 0 0
2785 0 0 0
2786 0 0 0
2787 0 0 0
2788 0 0 0
2789 0 0 0
2790 0 0 0
2791 0 0 0
2792 0 0 0
2793 0 0 0
2794 0 0 0
2795 0 0 0
2796 0 0 0
2797 0 0 0
2798 0 0 0
2799 0 0 0
2800 0 0 0
2801 0 0 0
2802 0 0 0
2803 0 0 0
2804 0 0 0
2805 0 0 0
2806 0 0 0
2807 0 0 0
2808 0 0 0
2809 0 0 0
2810 0 0 0
2811 0 0 0
2812 0 0 0
2813 0 0 0
2814 0 0 0
2815 0 0 0
2816 0 0 0
2817 0 0 0
2818 0 0 0
2819 0 0 0
2820 0 0 0
2821 0 0 0
2822 0 0 0
2823 0 0 0
2824 0 0 0
2825 0 0 0
2826 0 0 0
2827 0 0 0
2828 0 0 0
2829 0 0 0
2830 0 0 0
2831 0 0 0
2832 0 0 0
2833 0 0 0
2834 0 0 0
2835 0 0 0
2836 0 0 0
2837 0 0 0
2838 0 0 0
2839 0 0 0
2840 0 0 0
2841 0 0 0
2842 0 0 0
2843 0 0 0
2844 0 0 0
2845 0 0 0
2846 0 0 0
2847 0 0 0
2848 0 0 0
2849 0 0 0
2850 0 0 0
2851 0 0 0
2852 0 0 0
2853 0 0 0
2854 0 0 0
2855 0 0 0
2856 0 0 0
2857 0 0 0
2858 0 0 0
2859 0 0 0
2860 0 0 0
2861 0 0 0
2862 0 0 0
2863 0 0 0
2864 0 0 0
2865 0 0 0
2866 0 0 0
2867 0 0 0
2868 0 0 0
2869 0 0 0
2870 0 0 0
2871 0 0 0
2872 0 0 0
2873 0 0 0
2874 0 0 0
2875 0 0 0
2876 0 0 0
2877 0 0 0
2878 0 0 0
2879 0 0 0
2880 0 0 0
2881 0 0 0
2882 0 0 0
2883 0 0 0
2884 0 0 0
2885 0 0 0
2886 0 0 0
2887 0 0 0
2888 0 0 0
2889 0 0 0
2890 0 0 0
2891 0 0 0
2892 0 0 0
2893 0 0 0
2894 0 0 0
2895 0 0 0
2896 0 0 0
2897 0 0 0
2898 0 0 0
2899 0 0 0
2900 0 0 0
2901 0 0 0
2902 0 0 0
2903 0 0 0
2904 0 0 0
2905 0 0 0
2906 0 0 0
2907 0 0 0
2908 0 0 0
2909 0 0 0
2910 0 0 0
3493 0 0 0
3494 0 0 0
3495 0 0 0
3496 0 0 0
3497 0 0 0
3498 0 0 0
3499 0 0 0
3500 0 0 0
3501 0 0 0
3502 0 0 0
3503 0 0 0
3504 0 0 0
3505 0 0 0
3506 0 0 0
3507 0 0 0
3508 0 0 0
3509 0 0 0
3510 0 0 0
3511 0 0 0
3512 0 0 0
3513 0 0 0
3514 0 0 0
3515 0 0 0
3516 0 0 0
3517 0 0 0
3518 0 0 0
3519 0 0 0
3520 0 0 0
3521 0 0 0
3522 0 0 0
3523 0 0 0
3524 0 0 0
3525 0 0 0
3526 0 0 0
3527 0 0 0
3528 0 0 0
3529 0 0 0
3530 0 0 0
3531 0 0 0
3532 0 0 0
3533 0 0 0
3534 0 0 0
3535 0 0 0
3536 0 0 0
3537 0 0 0
3538 0 0 0
3539 0 0 0
3540 0 0 0
3541 0 0 0
3542 0 0 0
3543 0 0 0
3544 0 0 0
3545 0 0 0
3546 0 0 0
3547 0 0 0
3548 0 0 0
3549 0 0 0
3550 0 0 0
3551 0 0 0
3552 0 0 0
3553 0 0 0
3554 0 0 0
3555 0 0 0
3556 0 0 0
3557 0 0 0
3558 0 0 0
3559 0 0 0
3560 0 0 0
3561 0 0 0
3562 0 0 0
3563 0 0 0
3564 0 0 0
3565 0 0 0
3566 0 0 0
3567 0 0 0
3568 0 0 0
3569 0 0 0
3570 0 0 0
3571 0 0 0
3572 0 0 0
3573 0 0 0
3574 0 0 0
3575 0 0 0
3576 0 0 0
3577 0 0 0
3578 0 0 0
3579 0 0 0
3580 0 0 0
3581 0 0 0
3582 0 0 0
3583 0 0 0
3584 0 0 0
3585 0 0 0
3586 0 0 0
3587 0 0 0
3588 0 0 0
3589 0 0 0
3590 0 0 0
3591 0 0 0
3592 0 0 0
3593 0 0 0
3594 0 0 0
3595 0 0 0
3596 0 0 0
3597 0 0 0
3598 0 0 0
3599 0 0 0
3600 0 0 0
3601 0 0 0
3602 0 0 0
3603 0 0 0
3604 0 0 0
3605 0 0 0
3606 0 0 0
3607 0 0 0
3608 0 0 0
3609 0 0 0
3610 0 0 0
3611 0 0 0
3612 0 0 0
3613 0 0 0
3614 0 0 0
3615 0 0 0
3616 0 0 0
3617 0 0 0
3618 0 0 0
3619 0 0 0
3620 0 0 0
3621 0 0 0
3622 0 0 0
3623 0 0 0
3624 0 0 0
3625 0 0 0
3626 0 0 0
3627 0 0 0
3628 0 0 0
3629 0 0 0
3630 0 0 0
3631 0 0 0
3632 0 0 0
3633 0 0 0
3634 0 0 0
3635 0 0 0
3636 0 0 0
3637 0 0 0
3638 0 0 0
3639 0 0 0
3640 0 0 0
3641 0 0 0
3642 0 0 0
3643 0 0 0
3644 0 0 0
3645 0 0 0
3646 0 0 0
3647 0 0 0
3648 0 0 0
3649 0 0 0
3650 0 0 0
3651 0 0 0
3652 0 0 0
3653 0 0 0
3654 0 0 0
3655 0 0 0
3656 0 0 0
3657 0 0 0
3658 0 0 0
3659 0 0 0
3660 0 0 0
3661 0 0 0
3662 0 0 0
3663 0 0 0
3664 0 0 0
3665 0 0 0
3666 0 0 0
3667 0 0 0
3668 0 0 0
3669 0 0 0
3670 0 0 0
3671 0 0 0
3672 0 0 0
3673 0 0 0
3674 0 0 0
3675 0 0 0
3676 0 0 0
3677 0 0 0
3678 0 0 0
3679 0 0 0
3680 0 0 0
3681 0 0 0
3682 0 0 0
3683 0 0 0
3684 0 0 0
3685 0 0 0
3686 0 0 0
4269 0 0 0
4270 0 0 0
4271 0 0 0
4272 0 0 0
4273 0 0 0
4274 0 0 0
4275 0 0 0
4276 0 0 0
4277 0 0 0
4278 0 0 0
4279 0 0 0
4280 0 0 0
4281 0 0 0
4282 0 0 0
4283 0 0 0
4284 0 0 0
4285 0 0 0
4286 0 0 0
4287 0 0 0
4288 0 0 0
4289 0 0 0
4290 0 0 0
4291 0 0 0
4292 0 0 0
4293 0 0 0
4294 0 0 0
4295 0 0 0
4296 0 0 0
4297 0 0 0
4298 0 0 0
4299 0 0 0
4300 0 0 0
4301 0 0 0
4302 0 0 0
4303 0 0 0
4304 0 0 0
4305 0 0 0
4306 0 0 0
4307 0 0 0
4308 0 0 0
4309 0 0 0
4310 0 0 0
4311 0 0 0
4312 0 0 0
4313 0 0 0
4314 0 0 0
4315 0 0 0
4316 0 0 0
4317 0 0 0
4318 0 0 0
4319 0 0 0
4320 0 0 0
4321 0 0 0
4322 0 0 0
4323 0 0 0
4324 0 0 0
4325 0 0 0
4326 0 0 0
4327 0 0 0
4328 0 0 0
4329 0 0 0
4330 0 0 0
4331 0 0 0
4332 0 0 0
4333 0 0 0
4334 0 0 0
4335 0 0 0
4336 0 0 0
4337 0 0 0
4338 0 0 0
4339 0 0 0
4340 0 0 0
4341 0 0 0
4342 0 0 0
4343 0 0 0
4344 0 0 0
4345 0 0 0
4346 0 0 0
4347 0 0 0
4348 0 0 0
4349 0 0 0
4350 0 0 0
4351 0 0 0
4352 0 0 0
4353 0 0 0
4354 0 0 0
4355 0 0 0
4356 0 0 0
4357 0 0 0
4358 0 0 0
4359 0 0 0
4360 0 0 0
4361 0 0 0
4362 0 0 0
4363 0 0 0
4364 0 0 0
4365 0 0 0
4366 0 0 0
4367 0 0 0
4368 0 0 0
4369 0 0 0
4370 0 0 0
4371 0 0 0
4372 0 0 0
4373 0 0 0
4374 0 0 0
4375 0 0 0
4376 0 0 0
4377 0 0 0
4378 0 0 0
4379 0 0 0
4380 0 0 0
4381 0 0 0
4382 0 0 0
4383 0 0 0
4384 0 0 0
4385 0 0 0
4386 0 0 0
4387 0 0 0
4388 0 0 0
4389 0 0 0
4390 0 0 0
4391 0 0 0
4392 0 0 0
4393 0 0 0
4394 0 0 0
4395 0 0 0
4396 0 0 0
4397 0 0 0
4398 0 0 0
4399 0 0 0
4400 0 0 0
4401 0 0 0
4402 0 0 0
4403 0 0 0
4404 0 0 0
4405 0 0 0
4406 0 0 0
4407 0 0 0
4408 0 0 0
4409 0 0 0
4410 0 0 0
4411 0 0 0
4412 0 0 0
4413 0 0 0
4414 0 0 0
4415 0 0 0
4416 0 0 0
4417 0 0 0
4418 0 0 0
4419 0 0 0
4420 0 0 0
4421 0 0 0
4422 0 0 0
4423 0 0 0
4424 0 0 0
4425 0 0 0
4426 0 0 0
4427 0 0 0
4428 0 0 0
4429 0 0 0
4430 0 0 0
4431 0 0 0
4432 0 0 0
4433 0 0 0
4434 0 0 0
4435 0 0 0
4436 0 0 0
4437 0 0 0
4438 0 0 0
4439 0 0 0
4440 0 0 0
4441 0 0 0
4442 0 0 0
4443 0 0 0
4444 0 0 0
4445 0 0 0
4446 0 0 0
4447 0 0 0
4448 0 0 0
4449 0 0 0
4450 0 0 0
4451 0 0 0
4452 0 0 0
4453 0 0 0
4454 0 0 0
4455 0 0 0
4456 0 0 0
4457 0 0 0
4458 0 0 0
4459 0 0 0
4460 0 0 0
4461 0 0 0
4462 0 0 0
5045 0 0 0
5046 0 0 0
5047 0 0 0
5048 0 0 0
5049 0 0 0
5050 0 0 0
5051 0 0 0
5052 0 0 0
5053 0 0 0
5054 0 0 0
5055 0 0 0
5056 0 0 0
5057 0 0 0
5058 0 0 0
5059 0 0 0
5060 0 0 0
5061 0 0 0
5062 0 0 0
5063 0 0 0
5064 0 0 0
5065 0 0 0
5066 0 0 0
5067 0 0 0
5068 0 0 0
5069 0 0 0
5070 0 0 0
5071 0 0 0
5072 0 0 0
5073 0 0 0
5074 0 0 0
5075 0 0 0
5076 0 0 0
5077 0 0 0
5078 0 0 0
5079 0 0 0
5080 0 0 0
5081 0 0 0
5082 0 0 0
5083 0 0 0
5084 0 0 0
5085 0 0 0
5086 0 0 0
5087 0 0 0
5088 0 0 0
5089 0 0 0
5090 0 0 0
5091 0 0 0
5092 0 0 0
5093 0 0 0
5094 0 0 0
5095 0 0 0
5096 0 0 0
5097 0 0 0
5098 0 0 0
5099 0 0 0
5100 0 0 0
5101 0 0 0
5102 0 0 0
5103 0 0 0
5104 0 0 0
5105 0 0 0
5106 0 0 0
5107 0 0 0
5108 0 0 0
5109 0 0 0
5110 0 0 0
5111 0 0 0
5112 0 0 0
5113 0 0 0
5114 0 0 0
5115 0 0 0
5116 0 0 0
5117 0 0 0
5118 0 0 0
5119 0 0 0
5120 0 0 0
5121 0 0 0
5122 0 0 0
5123 0 0 0
5124 0 0 0
5125 0 0 0
5126 0 0 0
5127 0 0 0
5128 0 0 0
5129 0 0 0
5130 0 0 0
5131 0 0 0
5132 0 0 0
5133 0 0 0
5134 0 0 0
5135 0 0 0
5136 0 0 0
5137 0 0 0
5138 0 0 0
5139 0 0 0
5140 0 0 0
5141 0 0 0
5142 0 0 0
5143 0 0 0
5144 0 0 0
5145 0 0 0
5146 0 0 0
5147 0 0 0
5148 0 0 0
5149 0 0 0
5150 0 0 0
5151 0 0 0
5152 0 0 0
5153 0 0 0
5154 0 0 0
5155 0 0 0
5156 0 0 0
5157 0 0 0
5158 0 0 0
5159 0 0 0
5160 0 0 0
5161 0 0 0
5162 0 0 0
5163 0 0 0
5164 0 0 0
5165 0 0 0
5166 0 0 0
5167 0 0 0
5168 0 0 0
5169 0 0 0
5170 0 0 0
5171 0 0 0
5172 0 0 0
5173 0 0 0
5174 0 0 0
5175 0 0 0
5176 0 0 0
5177 0 0 0
5178 0 0 0
5179 0 0 0
5180 0 0 0
5181 0 0 0
5182 0 0 0
5183 0 0 0
5184 0 0 0
5185 0 0 0
5186 0 0 0
5187 0 0 0
5188 0 0 0
5189 0 0 0
5190 0 0 0
5191 0 0 0
5192 0 0 0
5193 0 0 0
5194 0 0 0
5195 0 0 0
5196 0 0 0
5197 0 0 0
5198 0 0 0
5199 0 0 0
5200 0 0 0
5201 0 0 0
5202 0 0 0
5203 0 0 0
5204 0 0 0
5205 0 0 0
5206 0 0 0
5207 0 0 0
5208 0 0 0
5209 0 0 0
5210 0 0 0
5211 0 0 0
5212 0 0 0
5213 0 0 0
5214 0 0 0
5215 0 0 0
5216 0 0 0
5217 0 0 0
5218 0 0 0
5219 0 0 0
5220 0 0 0
5221 0 0 0
5222 0 0 0
5223 0 0 0
5224 0 0 0
5225 0 0 0
5226 0 0 0
5227 0 0 0
5228 0 0 0
5229 0 0 0
5230 0 0 0
5231 0 0 0
5232 0 0 0
5233 0 0 0
5234 0 0 0
5235 0 0 0
5236 0 0 0
5237 0 0 0
5238 0 0 0
5821 0 0 0
5822 0 0 0
5823 0 0 0
5824 0 0 0
5825 0 0 0
5826 0 0 0
5827 0 0 0
5828 0 0 0
5829 0 0 0
5830 0 0 0
5831 0 0 0
5832 0 0 0
5833 0 0 0
5834 0 0 0
5835 0 0 0
5836 0 0 0
5837 0 0 0
5838 0 0 0
5839 0 0 0
5840 0 0 0
5841 0 0 0
5842 0 0 0
5843 0 0 0
5844 0 0 0
5845 0 0 0
5846 0 0 0
5847 0 0 0
5848 0 0 0
5849 0 0 0
5850 0 0 0
5851 0 0 0
5852 0 0 0
5853 0 0 0
5854 0 0 0
5855 0 0 0
5856 0 0 0
5857 0 0 0
5858 0 0 0
5859 0 0 0
5860 0 0 0
5861 0 0 0
5862 0 0 0
5863 0 0 0
5864 0 0 0
5865 0 0 0
5866 0 0 0
5867 0 0 0
5868 0 0 0
5869 0 0 0
5870 0 0 0
5871 0 0 0
5872 0 0 0
5873 0 0 0
5874 0 0 0
5875 0 0 0
5876 0 0 0
5877 0 0 0
5878 0 0 0
5879 0 0 0
5880 0 0 0
5881 0 0 0
5882 0 0 0
5883 0 0 0
5884 0 0 0
5885 0 0 0
5886 0 0 0
5887 0 0 0
5888 0 0 0
5889 0 0 0
5890 0 0 0
5891 0 0 0
5892 0 0 0
5893 0 0 0
5894 0 0 0
5895 0 0 0
5896 0 0 0
5897 0 0 0
5898 0 0 0
5899 0 0 0
5900 0 0 0
5901 0 0 0
5902 0 0 0
5903 0 0 0
5904 0 0 0
5905 0 0 0
5906 0 0 0
5907 0 0 0
5908 0 0 0
5909 0 0 0
5910 0 0 0
5911 0 0 0
5912 0 0 0
5913 0 0 0
5914 0 0 0
5915 0 0 0
5916 0 0 0
5917 0 0 0
5918 0 0 0
5919 0 0 0
5920 0 0 0
5921 0 0 0
5922 0 0 0
5923 0 0 0
5924 0 0 0
5925 0 0 0
5926 0 0 0
5927 0 0 0
5928 0 0 0
5929 0 0 0
5930 0 0 0
5931 0 0 0
5932 0 0 0
5933 0 0 0
5934 0 0 0
5935 0 0 0
5936 0 0 0
5937 0 0 0
5938 0 0 0
5939 0 0 0
5940 0 0 0
5941 0 0 0
5942 0 0 0
5943 0 0 0
5944 0 0 0
5945 0 0 0
5946 0 0 0
5947 0 0 0
5948 0 0 0
5949 0 0 0
5950 0 0 0
5951 0 0 0
5952 0 0 0
5953 0 0 0
5954 0 0 0
5955 0 0 0
5956 0 0 0
5957 0 0 0
5958 0 0 0
5959 0 0 0
5960 0 0 0
5961 0 0 0
5962 0 0 0
5963 0 0 0
5964 0 0 0
5965 0 0 0
5966 0 0 0
5967 0 0 0
5968 0 0 0
5969 0 0 0
5970 0 0 0
5971 0 0 0
5972 0 0 0
5973 0 0 0
5974 0 0 0
5975 0 0 0
5976 0 0 0
5977 0 0 0
5978 0 0 0
5979 0 0 0
5980 0 0 0
5981 0 0 0
5982 0 0 0
5983 0 0 0
5984 0 0 0
5985 0 0 0
5986 0 0 0
5987 0 0 0
5988 0 0 0
5989 0 0 0
5990 0 0 0
5991 0 0 0
5992 0 0 0
5993 0 0 0
5994 0 0 0
5995 0 0 0
5996 0 0 0
5997 0 0 0
5998 0 0 0
5999 0 0 0
6000 0 0 0
6001 0 0 0
6002 0 0 0
6003 0 0 0
6004 0 0 0
6005 0 0 0
6006 0 0 0
6007 0 0 0
6008 0 0 0
6009 0 0 0
6010 0 0 0
6011 0 0 0
6012 0 0 0
6013 0 0 0
6014 0 0 0
6597 0 0 0
6598 0 0 0
6599 0 0 0
6600 0 0 0
6601 0 0 0
6602 0 0 0
6603 0 0 0
6604 0 0 0
6605 0 0 0
6606 0 0 0
6607 0 0 0
6608 0 0 0
6609 0 0 0
6610 0 0 0
6611 0 0 0
6612 0 0 0
6613 0 0 0
6614 0 0 0
6615 0 0 0
6616 0 0 0
6617 0 0 0
6618 0 0 0
6619 0 0 0
6620 0 0 0
6621 0 0 0
6622 0 0 0
6623 0 0 0
6624 0 0 0
6625 0 0 0
6626 0 0 0
6627 0 0 0
6628 0 0 0
6629 0 0 0
6630 0 0 0
6631 0 0 0
6632 0 0 0
6633 0 0 0
6634 0 0 0
6635 0 0 0
6636 0 0 0
6637 0 0 0
6638 0 0 0
6639 0 0 0
6640 0 0 0
6641 0 0 0
6642 0 0 0
6643 0 0 0
6644 0 0 0
6645 0 0 0
6646 0 0 0
6647 0 0 0
6648 0 0 0
6649 0 0 0
6650 0 0 0
6651 0 0 0
6652 0 0 0
6653 0 0 0
6654 0 0 0
6655 0 0 0
6656 0 0 0
6657 0 0 0
6658 0 0 0
6659 0 0 0
6660 0 0 0
6661 0 0 0
6662 0 0 0
6663 0 0 0
6664 0 0 0
6665 0 0 0
6666 0 0 0
6667 0 0 0
6668 0 0 0
6669 0 0 0
6670 0 0 0
6671 0 0 0
6672 0 0 0
6673 0 0 0
6674 0 0 0
6675 0 0 0
6676 0 0 0
6677 0 0 0
6678 0 0 0
6679 0 0 0
6680 0 0 0
6681 0 0 0
6682 0 0 0
6683 0 0 0
6684 0 0 0
6685 0 0 0
6686 0 0 0
6687 0 0 0
6688 0 0 0
6689 0 0 0
6690 0 0 0
6691 0 0 0
6692 0 0 0
6693 0 0 0
6694 0 0 0
6695 0 0 0
6696 0 0 0
6697 0 0 0
6698 0 0 0
6699 0 0 0
6700 0 0 0
6701 0 0 0
6702 0 0 0
6703 0 0 0
6704 0 0 0
6705 0 0 0
6706 0 0 0
6707 0 0 0
6708 0 0 0
6709 0 0 0
6710 0 0 0
6711 0 0 0
6712 0 0 0
6713 0 0 0
6714 0 0 0
6715 0 0 0
6716 0 0 0
6717 0 0 0
6718 0 0 0
6719 0 0 0
6720 0 0 0
6721 0 0 0
6722 0 0 0
6723 0 0 0
6724 0 0 0
6725 0 0 0
6726 0 0 0
6727 0 0 0
6728 0 0 0
6729 0 0 0
6730 0 0 0
6731 0 0 0
6732 0 0 0
6733 0 0 0
6734 0 0 0
6735 0 0 0
6736 0 0 0
6737 0 0 0
6738 0 0 0
6739 0 0 0
6740 0 0 0
6741 0 0 0
6742 0 0 0
6743 0 0 0
6744 0 0 0
6745 0 0 0
6746 0 0 0
6747 0 0 0
6748 0 0 0
6749 0 0 0
6750 0 0 0
6751 0 0 0
6752 0 0 0
6753 0 0 0
6754 0 0 0
6755 0 0 0
6756 0 0 0
6757 0 0 0
6758 0 0 0
6759 0 0 0
6760 0 0 0
6761 0 0 0
6762 0 0 0
6763 0 0 0
6764 0 0 0
6765 0 0 0
6766 0 0 0
6767 0 0 0
6768 0 0 0
6769 0 0 0
6770 0 0 0
6771 0 0 0
6772 0 0 0
6773 0 0 0
6774 0 0 0
6775 0 0 0
6776 0 0 0
6777 0 0 0
6778 0 0 0
6779 0 0 0
6780 0 0 0
6781 0 0 0
6782 0 0 0
6783 0 0 0
6784 0 0 0
6785 0 0 0
6786 0 0 0
6787 0 0 0
6788 0 0 0
6789 0 0 0
6790 0 0 0
7373 0 0 0
7374 0 0 0
7375 0 0 0
7376 0 0 0
7377 0 0 0
7378 0 0 0
7379 0 0 0
7380 0 0 0
7381 0 0 0
7382 0 0 0
7383 0 0 0
7384 0 0 0
7385 0 0 0
7386 0 0 0
7387 0 0 0
7388 0 0 0
7389 0 0 0
7390 0 0 0
7391 0 0 0
7392 0 0 0
7393 0 0 0
7394 0 0 0
7395 0 0 0
7396 0 0 0
7397 0 0 0
7398 0 0 0
7399 0 0 0
7400 0 0 0
7401 0 0 0
7402 0 0 0
7403 0 0 0
7404 0 0 0
7405 0 0 0
7406 0 0 0
7407 0 0 0
7408 0 0 0
7409 0 0 0
7410 0 0 0
7411 0 0 0
7412 0 0 0
7413 0 0 0
7414 0 0 0
7415 0 0 0
7416 0 0 0
7417 0 0 0
7418 0 0 0
7419 0 0 0
7420 0 0 0
7421 0 0 0
7422 0 0 0
7423 0 0 0
7424 0 0 0
7425 0 0 0
7426 0 0 0
7427 0 0 0
7428 0 0 0
7429 0 0 0
7430 0 0 0
7431 0 0 0
7432 0 0 0
7433 0 0 0
7434 0 0 0
7435 0 0 0
7436 0 0 0
7437 0 0 0
7438 0 0 0
7439 0 0 0
7440 0 0 0
7441 0 0 0
7442 0 0 0
7443 0 0 0
7444 0 0 0
7445 0 0 0
7446 0 0 0
7447 0 0 0
7448 0 0 0
7449 0 0 0
7450 0 0 0
7451 0 0 0
7452 0 0 0
7453 0 0 0
7454 0 0 0
7455 0 0 0
7456 0 0 0
7457 0 0 0
7458 0 0 0
7459 0 0 0
7460 0 0 0
7461 0 0 0
7462 0 0 0
7463 0 0 0
7464 0 0 0
7465 0 0 0
7466 0 0 0
7467 0 0 0
7468 0 0 0
7469 0 0 0
7470 0 0 0
7471 0 0 0
7472 0 0 0
7473 0 0 0
7474 0 0 0
7475 0 0 0
7476 0 0 0
7477 0 0 0
7478 0 0 0
7479 0 0 0
7480 0 0 0
7481 0 0 0
7482 0 0 0
7483 0 0 0
7484 0 0 0
7485 0 0 0
7486 0 0 0
7487 0 0 0
7488 0 0 0
7489 0 0 0
7490 0 0 0
7491 0 0 0
7492 0 0 0
7493 0 0 0
7494 0 0 0
7495 0 0 0
7496 0 0 0
7497 0 0 0
7498 0 0 0
7499 0 0 0
7500 0 0 0
7501 0 0 0
7502 0 0 0
7503 0 0 0
7504 0 0 0
7505 0 0 0
7506 0 0 0
7507 0 0 0
7508 0 0 0
7509 0 0 0
7510 0 0 0
7511 0 0 0
7512 0 0 0
7513 0 0 0
7514 0 0 0
7515 0 0 0
7516 0 0 0
7517 0 0 0
7518 0 0 0
7519 0 0 0
7520 0 0 0
7521 0 0 0
7522 0 0 0
7523 0 0 0
7524 0 0 0
7525 0 0 0
7526 0 0 0
7527 0 0 0
7528 0 0 0
7529 0 0 0
7530 0 0 0
7531 0 0 0
7532 0 0 0
7533 0 0 0
7534 0 0 0
7535 0 0 0
7536 0 0 0
7537 0 0 0
7538 0 0 0
7539 0 0 0
7540 0 0 0
7541 0 0 0
7542 0 0 0
7543 0 0 0
7544 0 0 0
7545 0 0 0
7546 0 0 0
7547 0 0 0
7548 0 0 0
7549 0 0 0
7550 0 0 0
7551 0 0 0
7552 0 0 0
7553 0 0 0
7554 0 0 0
7555 0 0 0
7556 0 0 0
7557 0 0 0
7558 0 0 0
7559 0 0 0
7560 0 0 0
7561 0 0 0
7562 0 0 0
7563 0 0 0
7564 0 0 0
7565 0 0 0
7566 0 0 0
8149 0 0 0
8150 0 0 0
8151 0 0 0
8152 0 0 0
8153 0 0 0
8154 0 0 0
8155 0 0 0
8156 0 0 0
8157 0 0 0
8158 0 0 0
8159 0 0 0
8160 0 0 0
8161 0 0 0
8162 0 0 0
8163 0 0 0
8164 0 0 0
8165 0 0 0
8166 0 0 0
8167 0 0 0
8168 0 0 0
8169 0 0 0
8170 0 0 0
8171 0 0 0
8172 0 0 0
8173 0 0 0
8174 0 0 0
8175 0 0 0
8176 0 0 0
8177 0 0 0
8178 0 0 0
8179 0 0 0
8180 0 0 0
8181 0 0 0
8182 0 0 0
8183 0 0 0
8184 0 0 0
8185 0 0 0
8186 0 0 0
8187 0 0 0
8188 0 0 0
8189 0 0 0
8190 0 0 0
8191 0 0 0
8192 0 0 0
8193 0 0 0
8194 0 0 0
8195 0 0 0
8196 0 0 0
8197 0 0 0
8198 0 0 0
8199 0 0 0
8200 0 0 0
8201 0 0 0
8202 0 0 0
8203 0 0 0
8204 0 0 0
8205 0 0 0
8206 0 0 0
8207 0 0 0
8208 0 0 0
8209 0 0 0
8210 0 0 0
8211 0 0 0
8212 0 0 0
8213 0 0 0
8214 0 0 0
8215 0 0 0
8216 0 0 0
8217 0 0 0
8218 0 0 0
8219 0 0 0
8220 0 0 0
8221 0 0 0
8222 0 0 0
8223 0 0 0
8224 0 0 0
8225 0 0 0
8226 0 0 0
8227 0 0 0
8228 0 0 0
8229 0 0 0
8230 0 0 0
8231 0 0 0
8232 0 0 0
8233 0 0 0
8234 0 0 0
8235 0 0 0
8236 0 0 0
8237 0 0 0
8238 0 0 0
8239 0 0 0
8240 0 0 0
8241 0 0 0
8242 0 0 0
8243 0 0 0
8244 0 0 0
8245 0 0 0
8246 0 0 0
8247 0 0 0
8248 0 0 0
8249 0 0 0
8250 0 0 0
8251 0 0 0
8252 0 0 0
8253 0 0 0
8254 0 0 0
8255 0 0 0
8256 0 0 0
8257 0 0 0
8258 0 0 0
8259 0 0 0
8260 0 0 0
8261 0 0 0
8262 0 0 0
8263 0 0 0
8264 0 0 0
8265 0 0 0
8266 0 0 0
8267 0 0 0
8268 0 0 0
8269 0 0 0
8270 0 0 0
8271 0 0 0
8272 0 0 0
8273 0 0 0
8274 0 0 0
8275 0 0 0
8276 0 0 0
8277 0 0 0
8278 0 0 0
8279 0 0 0
8280 0 0 0
8281 0 0 0
8282 0 0 0
8283 0 0 0
8284 0 0 0
8285 0 0 0
8286 0 0 0
8287 0 0 0
8288 0 0 0
8289 0 0 0
8290 0 0 0
8291 0 0 0
8292 0 0 0
8293 0 0 0
8294 0 0 0
8295 0 0 0
8296 0 0 0
8297 0 0 0
8298 0 0 0
8299 0 0 0
8300 0 0 0
8301 0 0 0
8302 0 0 0
8303 0 0 0
8304 0 0 0
8305 0 0 0
8306 0 0 0
8307 0 0 0
8308 0 0 0
8309 0 0 0
8310 0 0 0
8311 0 0 0
8312 0 0 0
8313 0 0 0
8314 0 0 0
8315 0 0 0
8316 0 0 0
8317 0 0 0
8318 0 0 0
8319 0 0 0
8320 0 0 0
8321 0 0 0
8322 0 0 0
8323 0 0 0
8324 0 0 0
8325 0 0 0
8326 0 0 0
8327 0 0 0
8328 0 0 0
8329 0 0 0
8330 0 0 0
8331 0 0 0
8332 0 0 0
8333 0 0 0
8334 0 0 0
8335 0 0 0
8336 0 0 0
8337 0 0 0
8338 0 0 0
8339 0 0 0
8340 0 0 0
8341 0 0 0
8342 0 0 0
583 0 0 0
584 0 0 0
585 0 0 0
586 0 0 0
587 0 0 0
588 0 0 0
589 0 0 0
590 0 0 0
591 0 0 0
592 0 0 0
593 0 0 0
594 0 0 0
595 0 0 0
596 0 0 0
597 0 0 0
598 0 0 0
599 0 0 0
600 0 0 0
601 0 0 0
602 0 0 0
603 0 0 0
604 0 0 0
605 0 0 0
606 0 0 0
607 0 0 0
608 0 0 0
609 0 0 0
610 0 0 0
611 0 0 0
612 0 0 0
613 0 0 0
614 0 0 0
615 0 0 0
616 0 0 0
617 0 0 0
618 0 0 0
619 0 0 0
620 0 0 0
621 0 0 0
622 0 0 0
623 0 0 0
624 0 0 0
625 0 0 0
626 0 0 0
627 0 0 0
628 0 0 0
629 0 0 0
630 0 0 0
631 0 0 0
632 0 0 0
633 0 0 0
634 0 0 0
635 0 0 0
636 0 0 0
637 0 0 0
638 0 0 0
639 0 0 0
640 0 0 0
641 0 0 0
642 0 0 0
643 0 0 0
644 0 0 0
645 0 0 0
646 0 0 0
647 0 0 0
648 0 0 0
649 0 0 0
650 0 0 0
651 0 0 0
652 0 0 0
653 0 0 0
654 0 0 0
655 0 0 0
656 0 0 0
657 0 0 0
658 0 0 0
659 0 0 0
660 0 0 0
661 0 0 0
662 0 0 0
663 0 0 0
664 0 0 0
665 0 0 0
666 0 0 0
667 0 0 0
668 0 0 0
669 0 0 0
670 0 0 0
671 0 0 0
672 0 0 0
673 0 0 0
674 0 0 0
675 0 0 0
676 0 0 0
677 0 0 0
678 0 0 0
679 0 0 0
680 0 0 0
681 0 0 0
682 0 0 0
683 0 0 0
684 0 0 0
685 0 0 0
686 0 0 0
687 0 0 0
688 0 0 0
689 0 0 0
690 0 0 0
691 0 0 0
692 0 0 0
693 0 0 0
694 0 0 0
695 0 0 0
696 0 0 0
697 0 0 0
698 0 0 0
699 0 0 0
700 0 0 0
701 0 0 0
702 0 0 0
703 0 0 0
704 0 0 0
705 0 0 0
706 0 0 0
707 0 0 0
708 0 0 0
709 0 0 0
710 0 0 0
711 0 0 0
712 0 0 0
713 0 0 0
714 0 0 0
715 0 0 0
716 0 0 0
717 0 0 0
718 0 0 0
719 0 0 0
720 0 0 0
721 0 0 0
722 0 0 0
723 0 0 0
724 0 0 0
725 0 0 0
726 0 0 0
727 0 0 0
728 0 0 0
729 0 0 0
730 0 0 0
731 0 0 0
732 0 0 0
733 0 0 0
734 0 0 0
735 0 0 0
736 0 0 0
737 0 0 0
738 0 0 0
739 0 0 0
740 0 0 0
741 0 0 0
742 0 0 0
743 0 0 0
744 0 0 0
745 0 0 0
746 0 0 0
747 0 0 0
748 0 0 0
749 0 0 0
750 0 0 0
751 0 0 0
752 0 0 0
753 0 0 0
754 0 0 0
755 0 0 0
756 0 0 0
757 0 0 0
758 0 0 0
759 0 0 0
760 0 0 0
761 0 0 0
762 0 0 0
763 0 0 0
764 0 0 0
765 0 0 0
766 0 0 0
767 0 0 0
768 0 0 0
769 0 0 0
770 0 0 0
771 0 0 0
772 0 0 0
773 0 0 0
774 0 0 0
775 0 0 0
776 0 0 0
1359 0 0 0
1360 0 0 0
1361 0 0 0
1362 0 0 0
1363 0 0 0
1364 0 0 0
1365 0 0 0
1366 0 0 0
1367 0 0 0
1368 0 0 0
1369 0 0 0
1370 0 0 0
1371 0 0 0
1372 0 0 0
1373 0 0 0
1374 0 0 0
1375 0 0 0
1376 0 0 0
1377 0 0 0
1378 0 0 0
1379 0 0 0
1380 0 0 0
1381 0 0 0
1382 0 0 0
1383 0 0 0
1384 0 0 0
1385 0 0 0
1386 0 0 0
1387 0 0 0
1388 0 0 0
1389 0 0 0
1390 0 0 0
1391 0 0 0
1392 0 0 0
1393 0 0 0
1394 0 0 0
1395 0 0 0
1396 0 0 0
1397 0 0 0
1398 0 0 0
1399 0 0 0
1400 0 0 0
1401 0 0 0
1402 0 0 0
1403 0 0 0
1404 0 0 0
1405 0 0 0
1406 0 0 0
1407 0 0 0
1408 0 0 0
1409 0 0 0
1410 0 0 0
1411 0 0 0
1412 0 0 0
1413 0 0 0
1414 0 0 0
1415 0 0 0
1416 0 0 0
1417 0 0 0
1418 0 0 0
1419 0 0 0
1420 0 0 0
1421 0 0 0
1422 0 0 0
1423 0 0 0
1424 0 0 0
1425 0 0 0
1426 0 0 0
1427 0 0 0
1428 0 0 0
1429 0 0 0
1430 0 0 0
1431 0 0 0
1432 0 0 0
1433 0 0 0
1434 0 0 0
1435 0 0 0
1436 0 0 0
1437 0 0 0
1438 0 0 0
1439 0 0 0
1440 0 0 0
1441 0 0 0
1442 0 0 0
1443 0 0 0
1444 0 0 0
1445 0 0 0
1446 0 0 0
1447 0 0 0
1448 0 0 0
1449 0 0 0
1450 0 0 0
1451 0 0 0
1452 0 0 0
1453 0 0 0
1454 0 0 0
1455 0 0 0
1456 0 0 0
1457 0 0 0
1458 0 0 0
1459 0 0 0
1460 0 0 0
1461 0 0 0
1462 0 0 0
1463 0 0 0
1464 0 0 0
1465 0 0 0
1466 0 0 0
1467 0 0 0
1468 0 0 0
1469 0 0 0
1470 0 0 0
1471 0 0 0
1472 0 0 0
1473 0 0 0
1474 0 0 0
1475 0 0 0
1476 0 0 0
1477 0 0 0
1478 0 0 0
1479 0 0 0
1480 0 0 0
1481 0 0 0
1482 0 0 0
1483 0 0 0
1484 0 0 0
1485 0 0 0
1486 0 0 0
1487 0 0 0
1488 0 0 0
1489 0 0 0
1490 0 0 0
1491 0 0 0
1492 0 0 0
1493 0 0 0
1494 0 0 0
1495 0 0 0
1496 0 0 0
1497 0 0 0
1498 0 0 0
1499 0 0 0
1500 0 0 0
1501 0 0 0
1502 0 0 0
1503 0 0 0
1504 0 0 0
1505 0 0 0
1506 0 0 0
1507 0 0 0
1508 0 0 0
1509 0 0 0
1510 0 0 0
1511 0 0 0
1512 0 0 0
1513 0 0 0
1514 0 0 0
1515 0 0 0
1516 0 0 0
1517 0 0 0
1518 0 0 0
1519 0 0 0
1520 0 0 0
1521 0 0 0
1522 0 0 0
1523 0 0 0
1524 0 0 0
1525 0 0 0
1526 0 0 0
1527 0 0 0
1528 0 0 0
1529 0 0 0
1530 0 0 0
1531 0 0 0
1532 0 0 0
1533 0 0 0
1534 0 0 0
1535 0 0 0
1536 0 0 0
1537 0 0 0
1538 0 0 0
1539 0 0 0
1540 0 0 0
1541 0 0 0
1542 0 0 0
1543 0 0 0
1544 0 0 0
1545 0 0 0
1546 0 0 0
1547 0 0 0
1548 0 0 0
1549 0 0 0
1550 0 0 0
1551 0 0 0
1552 0 0 0
2135 0 0 0
2136 0 0 0
2137 0 0 0
2138 0 0 0
2139 0 0 0
2140 0 0 0
2141 0 0 0
2142 0 0 0
2143 0 0 0
2144 0 0 0
2145 0 0 0
2146 0 0 0
2147 0 0 0
2148 0 0 0
2149 0 0 0
2150 0 0 0
2151 0 0 0
2152 0 0 0
2153 0 0 0
2154 0 0 0
2155 0 0 0
2156 0 0 0
2157 0 0 0
2158 0 0 0
2159 0 0 0
2160 0 0 0
2161 0 0 0
2162 0 0 0
2163 0 0 0
2164 0 0 0
2165 0 0 0
2166 0 0 0
2167 0 0 0
2168 0 0 0
2169 0 0 0
2170 0 0 0
2171 0 0 0
2172 0 0 0
2173 0 0 0
2174 0 0 0
2175 0 0 0
2176 0 0 0
2177 0 0 0
2178 0 0 0
2179 0 0 0
2180 0 0 0
2181 0 0 0
2182 0 0 0
2183 0 0 0
2184 0 0 0
2185 0 0 0
2186 0 0 0
2187 0 0 0
2188 0 0 0
2189 0 0 0
2190 0 0 0
2191 0 0 0
2192 0 0 0
2193 0 0 0
2194 0 0 0
2195 0 0 0
2196 0 0 0
2197 0 0 0
2198 0 0 0
2199 0 0 0
2200 0 0 0
2201 0 0 0
2202 0 0 0
2203 0 0 0
2204 0 0 0
2205 0 0 0
2206 0 0 0
2207 0 0 0
2208 0 0 0
2209 0 0 0
2210 0 0 0
2211 0 0 0
2212 0 0 0
2213 0 0 0
2214 0 0 0
2215 0 0 0
2216 0 0 0
2217 0 0 0
2218 0 0 0
2219 0 0 0
2220 0 0 0
2221 0 0 0
2222 0 0 0
2223 0 0 0
2224 0 0 0
2225 0 0 0
2226 0 0 0
2227 0 0 0
2228 0 0 0
2229 0 0 0
2230 0 0 0
2231 0 0 0
2232 0 0 0
2233 0 0 0
2234 0 0 0
2235 0 0 0
2236 0 0 0
2237 0 0 0
2238 0 0 0
2239 0 0 0
2240 0 0 0
2241 0 0 0
2242 0 0 0
2243 0 0 0
2244 0 0 0
2245 0 0 0
2246 0 0 0
2247 0 0 0
2248 0 0 0
2249 0 0 0
2250 0 0 0
2251 0 0 0
2252 0 0 0
2253 0 0 0
2254 0 0 0
2255 0 0 0
2256 0 0 0
2257 0 0 0
2258 0 0 0
2259 0 0 0
2260 0 0 0
2261 0 0 0
2262 0 0 0
2263 0 0 0
2264 0 0 0
2265 0 0 0
2266 0 0 0
2267 0 0 0
2268 0 0 0
2269 0 0 0
2270 0 0 0
2271 0 0 0
2272 0 0 0
2273 0 0 0
2274 0 0 0
2275 0 0 0
2276 0 0 0
2277 0 0 0
2278 0 0 0
2279 0 0 0
2280 0 0 0
2281 0 0 0
2282 0 0 0
2283 0 0 0
2284 0 0 0
2285 0 0 0
2286 0 0 0
2287 0 0 0
2288 0 0 0
2289 0 0 0
2290 0 0 0
2291 0 0 0
2292 0 0 0
2293 0 0 0
2294 0 0 0
2295 0 0 0
2296 0 0 0
2297 0 0 0
2298 0 0 0
2299 0 0 0
2300 0 0 0
2301 0 0 0
2302 0 0 0
2303 0 0 0
2304 0 0 0
2305 0 0 0
2306 0 0 0
2307 0 0 0
2308 0 0 0
2309 0 0 0
2310 0 0 0
2311 0 0 0
2312 0 0 0
2313 0 0 0
2314 0 0 0
2315 0 0 0
2316 0 0 0
2317 0 0 0
2318 0 0 0
2319 0 0 0
2320 0 0 0
2321 0 0 0
2322 0 0 0
2323 0 0 0
2324 0 0 0
2325 0 0 0
2326 0 0 0
2327 0 0 0
2328 0 0 0
2911 0 0 0
2912 0 0 0
2913 0 0 0
2914 0 0 0
2915 0 0 0
2916 0 0 0
2917 0 0 0
2918 0 0 0
2919 0 0 0
2920 0 0 0
2921 0 0 0
2922 0 0 0
2923 0 0 0
2924 0 0 0
2925 0 0 0
2926 0 0 0
2927 0 0 0
2928 0 0 0
2929 0 0 0
2930 0 0 0
2931 0 0 0
2932 0 0 0
2933 0 0 0
2934 0 0 0
2935 0 0 0
2936 0 0 0
2937 0 0 0
2938 0 0 0
2939 0 0 0
2940 0 0 0
2941 0 0 0
2942 0 0 0
2943 0 0 0
2944 0 0 0
2945 0 0 0
2946 0 0 0
2947 0 0 0
2948 0 0 0
2949 0 0 0
2950 0 0 0
2951 0 0 0
2952 0 0 0
2953 0 0 0
2954 0 0 0
2955 0 0 0
2956 0 0 0
2957 0 0 0
2958 0 0 0
2959 0 0 0
2960 0 0 0
2961 0 0 0
2962 0 0 0
2963 0 0 0
2964 0 0 0
2965 0 0 0
2966 0 0 0
2967 0 0 0
2968 0 0 0
2969 0 0 0
2970 0 0 0
2971 0 0 0
2972 0 0 0
2973 0 0 0
2974 0 0 0
2975 0 0 0
2976 0 0 0
2977 0 0 0
2978 0 0 0
2979 0 0 0
2980 0 0 0
2981 0 0 0
2982 0 0 0
2983 0 0 0
2984 0 0 0
2985 0 0 0
2986 0 0 0
2987 0 0 0
2988 0 0 0
2989 0 0 0
2990 0 0 0
2991 0 0 0
2992 0 0 0
2993 0 0 0
2994 0 0 0
2995 0 0 0
2996 0 0 0
2997 0 0 0
2998 0 0 0
2999 0 0 0
3000 0 0 0
3001 0 0 0
3002 0 0 0
3003 0 0 0
3004 0 0 0
3005 0 0 0
3006 0 0 0
3007 0 0 0
3008 0 0 0
3009 0 0 0
3010 0 0 0
3011 0 0 0
3012 0 0 0
3013 0 0 0
3014 0 0 0
3015 0 0 0
3016 0 0 0
3017 0 0 0
3018 0 0 0
3019 0 0 0
3020 0 0 0
3021 0 0 0
3022 0 0 0
3023 0 0 0
3024 0 0 0
3025 0 0 0
3026 0 0 0
3027 0 0 0
3028 0 0 0
3029 0 0 0
3030 0 0 0
3031 0 0 0
3032 0 0 0
3033 0 0 0
3034 0 0 0
3035 0 0 0
3036 0 0 0
3037 0 0 0
3038 0 0 0
3039 0 0 0
3040 0 0 0
3041 0 0 0
3042 0 0 0
3043 0 0 0
3044 0 0 0
3045 0 0 0
3046 0 0 0
3047 0 0 0
3048 0 0 0
3049 0 0 0
3050 0 0 0
3051 0 0 0
3052 0 0 0
3053 0 0 0
3054 0 0 0
3055 0 0 0
3056 0 0 0
3057 0 0 0
3058 0 0 0
3059 0 0 0
3060 0 0 0
3061 0 0 0
3062 0 0 0
3063 0 0 0
3064 0 0 0
3065 0 0 0
3066 0 0 0
3067 0 0 0
3068 0 0 0
3069 0 0 0
3070 0 0 0
3071 0 0 0
3072 0 0 0
3073 0 0 0
3074 0 0 0
3075 0 0 0
3076 0 0 0
3077 0 0 0
3078 0 0 0
3079 0 0 0
3080 0 0 0
3081 0 0 0
3082 0 0 0
3083 0 0 0
3084 0 0 0
3085 0 0 0
3086 0 0 0
3087 0 0 0
3088 0 0 0
3089 0 0 0
3090 0 0 0
3091 0 0 0
3092 0 0 0
3093 0 0 0
3094 0 0 0
3095 0 0 0
3096 0 0 0
3097 0 0 0
3098 0 0 0
3099 0 0 0
3100 0 0 0
3101 0 0 0
3102 0 0 0
3103 0 0 0
3104 0 0 0
3687 0 0 0
3688 0 0 0
3689 0 0 0
3690 0 0 0
3691 0 0 0
3692 0 0 0
3693 0 0 0
3694 0 0 0
3695 0 0 0
3696 0 0 0
3697 0 0 0
3698 0 0 0
3699 0 0 0
3700 0 0 0
3701 0 0 0
3702 0 0 0
3703 0 0 0
3704 0 0 0
3705 0 0 0
3706 0 0 0
3707 0 0 0
3708 0 0 0
3709 0 0 0
3710 0 0 0
3711 0 0 0
3712 0 0 0
3713 0 0 0
3714 0 0 0
3715 0 0 0
3716 0 0 0
3717 0 0 0
3718 0 0 0
3719 0 0 0
3720 0 0 0
3721 0 0 0
3722 0 0 0
3723 0 0 0
3724 0 0 0
3725 0 0 0
3726 0 0 0
3727 0 0 0
3728 0 0 0
3729 0 0 0
3730 0 0 0
3731 0 0 0
3732 0 0 0
3733 0 0 0
3734 0 0 0
3735 0 0 0
3736 0 0 0
3737 0 0 0
3738 0 0 0
3739 0 0 0
3740 0 0 0
3741 0 0 0
3742 0 0 0
3743 0 0 0
3744 0 0 0
3745 0 0 0
3746 0 0 0
3747 0 0 0
3748 0 0 0
3749 0 0 0
3750 0 0 0
3751 0 0 0
3752 0 0 0
3753 0 0 0
3754 0 0 0
3755 0 0 0
3756 0 0 0
3757 0 0 0
3758 0 0 0
3759 0 0 0
3760 0 0 0
3761 0 0 0
3762 0 0 0
3763 0 0 0
3764 0 0 0
3765 0 0 0
3766 0 0 0
3767 0 0 0
3768 0 0 0
3769 0 0 0
3770 0 0 0
3771 0 0 0
3772 0 0 0
3773 0 0 0
3774 0 0 0
3775 0 0 0
3776 0 0 0
3777 0 0 0
3778 0 0 0
3779 0 0 0
3780 0 0 0
3781 0 0 0
3782 0 0 0
3783 0 0 0
3784 0 0 0
3785 0 0 0
3786 0 0 0
3787 0 0 0
3788 0 0 0
3789 0 0 0
3790 0 0 0
3791 0 0 0
3792 0 0 0
3793 0 0 0
3794 0 0 0
3795 0 0 0
3796 0 0 0
3797 0 0 0
3798 0 0 0
3799 0 0 0
3800 0 0 0
3801 0 0 0
3802 0 0 0
3803 0 0 0
3804 0 0 0
3805 0 0 0
3806 0 0 0
3807 0 0 0
3808 0 0 0
3809 0 0 0
3810 0 0 0
3811 0 0 0
3812 0 0 0
3813 0 0 0
3814 0 0 0
3815 0 0 0
3816 0 0 0
3817 0 0 0
3818 0 0 0
3819 0 0 0
3820 0 0 0
3821 0 0 0
3822 0 0 0
3823 0 0 0
3824 0 0 0
3825 0 0 0
3826 0 0 0
3827 0 0 0
3828 0 0 0
3829 0 0 0
3830 0 0 0
3831 0 0 0
3832 0 0 0
3833 0 0 0
3834 0 0 0
3835 0 0 0
3836 0 0 0
3837 0 0 0
3838 0 0 0
3839 0 0 0
3840 0 0 0
3841 0 0 0
3842 0 0 0
3843 0 0 0
3844 0 0 0
3845 0 0 0
3846 0 0 0
3847 0 0 0
3848 0 0 0
3849 0 0 0
3850 0 0 0
3851 0 0 0
3852 0 0 0
3853 0 0 0
3854 0 0 0
3855 0 0 0
3856 0 0 0
3857 0 0 0
3858 0 0 0
3859 0 0 0
3860 0 0 0
3861 0 0 0
3862 0 0 0
3863 0 0 0
3864 0 0 0
3865 0 0 0
3866 0 0 0
3867 0 0 0
3868 0 0 0
3869 0 0 0
3870 0 0 0
3871 0 0 0
3872 0 0 0
3873 0 0 0
3874 0 0 0
3875 0 0 0
3876 0 0 0
3877 0 0 0
3878 0 0 0
3879 0 0 0
3880 0 0 0
4463 0 0 0
4464 0 0 0
4465 0 0 0
4466 0 0 0
4467 0 0 0
4468 0 0 0
4469 0 0 0
4470 0 0 0
4471 0 0 0
4472 0 0 0
4473 0 0 0
4474 0 0 0
4475 0 0 0
4476 0 0 0
4477 0 0 0
4478 0 0 0
4479 0 0 0
4480 0 0 0
4481 0 0 0
4482 0 0 0
4483 0 0 0
4484 0 0 0
4485 0 0 0
4486 0 0 0
4487 0 0 0
4488 0 0 0
4489 0 0 0
4490 0 0 0
4491 0 0 0
4492 0 0 0
4493 0 0 0
4494 0 0 0
4495 0 0 0
4496 0 0 0
4497 0 0 0
4498 0 0 0
4499 0 0 0
4500 0 0 0
4501 0 0 0
4502 0 0 0
4503 0 0 0
4504 0 0 0
4505 0 0 0
4506 0 0 0
4507 0 0 0
4508 0 0 0
4509 0 0 0
4510 0 0 0
4511 0 0 0
4512 0 0 0
4513 0 0 0
4514 0 0 0
4515 0 0 0
4516 0 0 0
4517 0 0 0
4518 0 0 0
4519 0 0 0
4520 0 0 0
4521 0 0 0
4522 0 0 0
4523 0 0 0
4524 0 0 0
4525 0 0 0
4526 0 0 0
4527 0 0 0
4528 0 0 0
4529 0 0 0
4530 0 0 0
4531 0 0 0
4532 0 0 0
4533 0 0 0
4534 0 0 0
4535 0 0 0
4536 0 0 0
4537 0 0 0
4538 0 0 0
4539 0 0 0
4540 0 0 0
4541 0 0 0
4542 0 0 0
4543 0 0 0
4544 0 0 0
4545 0 0 0
4546 0 0 0
4547 0 0 0
4548 0 0 0
4549 0 0 0
4550 0 0 0
4551 0 0 0
4552 0 0 0
4553 0 0 0
4554 0 0 0
4555 0 0 0
4556 0 0 0
4557 0 0 0
4558 0 0 0
4559 0 0 0
4560 0 0 0
4561 0 0 0
4562 0 0 0
4563 0 0 0
4564 0 0 0
4565 0 0 0
4566 0 0 0
4567 0 0 0
4568 0 0 0
4569 0 0 0
4570 0 0 0
4571 0 0 0
4572 0 0 0
4573 0 0 0
4574 0 0 0
4575 0 0 0
4576 0 0 0
4577 0 0 0
4578 0 0 0
4579 0 0 0
4580 0 0 0
4581 0 0 0
4582 0 0 0
4583 0 0 0
4584 0 0 0
4585 0 0 0
4586 0 0 0
4587 0 0 0
4588 0 0 0
4589 0 0 0
4590 0 0 0
4591 0 0 0
4592 0 0 0
4593 0 0 0
4594 0 0 0
4595 0 0 0
4596 0 0 0
4597 0 0 0
4598 0 0 0
4599 0 0 0
4600 0 0 0
4601 0 0 0
4602 0 0 0
4603 0 0 0
4604 0 0 0
4605 0 0 0
4606 0 0 0
4607 0 0 0
4608 0 0 0
4609 0 0 0
4610 0 0 0
4611 0 0 0
4612 0 0 0
4613 0 0 0
4614 0 0 0
4615 0 0 0
4616 0 0 0
4617 0 0 0
4618 0 0 0
4619 0 0 0
4620 0 0 0
4621 0 0 0
4622 0 0 0
4623 0 0 0
4624 0 0 0
4625 0 0 0
4626 0 0 0
4627 0 0 0
4628 0 0 0
4629 0 0 0
4630 0 0 0
4631 0 0 0
4632 0 0 0
4633 0 0 0
4634 0 0 0
4635 0 0 0
4636 0 0 0
4637 0 0 0
4638 0 0 0
4639 0 0 0
4640 0 0 0
4641 0 0 0
4642 0 0 0
4643 0 0 0
4644 0 0 0
4645 0 0 0
4646 0 0 0
4647 0 0 0
4648 0 0 0
4649 0 0 0
4650 0 0 0
4651 0 0 0
4652 0 0 0
4653 0 0 0
4654 0 0 0
4655 0 0 0
4656 0 0 0
5239 0 0 0
5240 0 0 0
5241 0 0 0
5242 0 0 0
5243 0 0 0
5244 0 0 0
5245 0 0 0
5246 0 0 0
5247 0 0 0
5248 0 0 0
5249 0 0 0
5250 0 0 0
5251 0 0 0
5252 0 0 0
5253 0 0 0
5254 0 0 0
5255 0 0 0
5256 0 0 0
5257 0 0 0
5258 0 0 0
5259 0 0 0
5260 0 0 0
5261 0 0 0
5262 0 0 0
5263 0 0 0
5264 0 0 0
5265 0 0 0
5266 0 0 0
5267 0 0 0
5268 0 0 0
5269 0 0 0
5270 0 0 0
5271 0 0 0
5272 0 0 0
5273 0 0 0
5274 0 0 0
5275 0 0 0
5276 0 0 0
5277 0 0 0
5278 0 0 0
5279 0 0 0
5280 0 0 0
5281 0 0 0
5282 0 0 0
5283 0 0 0
5284 0 0 0
5285 0 0 0
5286 0 0 0
5287 0 0 0
5288 0 0 0
5289 0 0 0
5290 0 0 0
5291 0 0 0
5292 0 0 0
5293 0 0 0
5294 0 0 0
5295 0 0 0
5296 0 0 0
5297 0 0 0
5298 0 0 0
5299 0 0 0
5300 0 0 0
5301 0 0 0
5302 0 0 0
5303 0 0 0
5304 0 0 0
5305 0 0 0
5306 0 0 0
5307 0 0 0
5308 0 0 0
5309 0 0 0
5310 0 0 0
5311 0 0 0
5312 0 0 0
5313 0 0 0
5314 0 0 0
5315 0 0 0
5316 0 0 0
5317 0 0 0
5318 0 0 0
5319 0 0 0
5320 0 0 0
5321 0 0 0
5322 0 0 0
5323 0 0 0
5324 0 0 0
5325 0 0 0
5326 0 0 0
5327 0 0 0
5328 0 0 0
5329 0 0 0
5330 0 0 0
5331 0 0 0
5332 0 0 0
5333 0 0 0
5334 0 0 0
5335 0 0 0
5336 0 0 0
5337 0 0 0
5338 0 0 0
5339 0 0 0
5340 0 0 0
5341 0 0 0
5342 0 0 0
5343 0 0 0
5344 0 0 0
5345 0 0 0
5346 0 0 0
5347 0 0 0
5348 0 0 0
5349 0 0 0
5350 0 0 0
5351 0 0 0
5352 0 0 0
5353 0 0 0
5354 0 0 0
5355 0 0 0
5356 0 0 0
5357 0 0 0
5358 0 0 0
5359 0 0 0
5360 0 0 0
5361 0 0 0
5362 0 0 0
5363 0 0 0
5364 0 0 0
5365 0 0 0
5366 0 0 0
5367 0 0 0
5368 0 0 0
5369 0 0 0
5370 0 0 0
5371 0 0 0
5372 0 0 0
5373 0 0 0
5374 0 0 0
5375 0 0 0
5376 0 0 0
5377 0 0 0
5378 0 0 0
5379 0 0 0
5380 0 0 0
5381 0 0 0
5382 0 0 0
5383 0 0 0
5384 0 0 0
5385 0 0 0
5386 0 0 0
5387 0 0 0
5388 0 0 0
5389 0 0 0
5390 0 0 0
5391 0 0 0
5392 0 0 0
5393 0 0 0
5394 0 0 0
5395 0 0 0
5396 0 0 0
5397 0 0 0
5398 0 0 0
5399 0 0 0
5400 0 0 0
5401 0 0 0
5402 0 0 0
5403 0 0 0
5404 0 0 0
5405 0 0 0
5406 0 0 0
5407 0 0 0
5408 0 0 0
5409 0 0 0
5410 0 0 0
5411 0 0 0
5412 0 0 0
5413 0 0 0
5414 0 0 0
5415 0 0 0
5416 0 0 0
5417 0 0 0
5418 0 0 0
5419 0 0 0
5420 0 0 0
5421 0 0 0
5422 0 0 0
5423 0 0 0
5424 0 0 0
5425 0 0 0
5426 0 0 0
5427 0 0 0
5428 0 0 0
5429 0 0 0
5430 0 0 0
5431 0 0 0
5432 0 0 0
6015 0 0 0
6016 0 0 0
6017 0 0 0
6018 0 0 0
6019 0 0 0
6020 0 0 0
6021 0 0 0
6022 0 0 0
6023 0 0 0
6024 0 0 0
6025 0 0 0
6026 0 0 0
6027 0 0 0
6028 0 0 0
6029 0 0 0
6030 0 0 0
6031 0 0 0
6032 0 0 0
6033 0 0 0
6034 0 0 0
6035 0 0 0
6036 0 0 0
6037 0 0 0
6038 0 0 0
6039 0 0 0
6040 0 0 0
6041 0 0 0
6042 0 0 0
6043 0 0 0
6044 0 0 0
6045 0 0 0
6046 0 0 0
6047 0 0 0
6048 0 0 0
6049 0 0 0
6050 0 0 0
6051 0 0 0
6052 0 0 0
6053 0 0 0
6054 0 0 0
6055 0 0 0
6056 0 0 0
6057 0 0 0
6058 0 0 0
6059 0 0 0
6060 0 0 0
6061 0 0 0
6062 0 0 0
6063 0 0 0
6064 0 0 0
6065 0 0 0
6066 0 0 0
6067 0 0 0
6068 0 0 0
6069 0 0 0
6070 0 0 0
6071 0 0 0
6072 0 0 0
6073 0 0 0
6074 0 0 0
6075 0 0 0
6076 0 0 0
6077 0 0 0
6078 0 0 0
6079 0 0 0
6080 0 0 0
6081 0 0 0
6082 0 0 0
6083 0 0 0
6084 0 0 0
6085 0 0 0
6086 0 0 0
6087 0 0 0
6088 0 0 0
6089 0 0 0
6090 0 0 0
6091 0 0 0
6092 0 0 0
6093 0 0 0
6094 0 0 0
6095 0 0 0
6096 0 0 0
6097 0 0 0
6098 0 0 0
6099 0 0 0
6100 0 0 0
6101 0 0 0
6102 0 0 0
6103 0 0 0
6104 0 0 0
6105 0 0 0
6106 0 0 0
6107 0 0 0
6108 0 0 0
6109 0 0 0
6110 0 0 0
6111 0 0 0
6112 0 0 0
6113 0 0 0
6114 0 0 0
6115 0 0 0
6116 0 0 0
6117 0 0 0
6118 0 0 0
6119 0 0 0
6120 0 0 0
6121 0 0 0
6122 0 0 0
6123 0 0 0
6124 0 0 0
6125 0 0 0
6126 0 0 0
6127 0 0 0
6128 0 0 0
6129 0 0 0
6130 0 0 0
6131 0 0 0
6132 0 0 0
6133 0 0 0
6134 0 0 0
6135 0 0 0
6136 0 0 0
6137 0 0 0
6138 0 0 0
6139 0 0 0
6140 0 0 0
6141 0 0 0
6142 0 0 0
6143 0 0 0
6144 0 0 0
6145 0 0 0
6146 0 0 0
6147 0 0 0
6148 0 0 0
6149 0 0 0
6150 0 0 0
6151 0 0 0
6152 0 0 0
6153 0 0 0
6154 0 0 0
6155 0 0 0
6156 0 0 0
6157 0 0 0
6158 0 0 0
6159 0 0 0
6160 0 0 0
6161 0 0 0
6162 0 0 0
6163 0 0 0
6164 0 0 0
6165 0 0 0
6166 0 0 0
6167 0 0 0
6168 0 0 0
6169 0 0 0
6170 0 0 0
6171 0 0 0
6172 0 0 0
6173 0 0 0
6174 0 0 0
6175 0 0 0
6176 0 0 0
6177 0 0 0
6178 0 0 0
6179 0 0 0
6180 0 0 0
6181 0 0 0
6182 0 0 0
6183 0 0 0
6184 0 0 0
6185 0 0 0
6186 0 0 0
6187 0 0 0
6188 0 0 0
6189 0 0 0
6190 0 0 0
6191 0 0 0
6192 0 0 0
6193 0 0 0
6194 0 0 0
6195 0 0 0
6196 0 0 0
6197 0 0 0
6198 0 0 0
6199 0 0 0
6200 0 0 0
6201 0 0 0
6202 0 0 0
6203 0 0 0
6204 0 0 0
6205 0 0 0
6206 0 0 0
6207 0 0 0
6208 0 0 0
6791 0 0 0
6792 0 0 0
6793 0 0 0
6794 0 0 0
6795 0 0 0
6796 0 0 0
6797 0 0 0
6798 0 0 0
6799 0 0 0
6800 0 0 0
6801 0 0 0
6802 0 0 0
6803 0 0 0
6804 0 0 0
6805 0 0 0
6806 0 0 0
6807 0 0 0
6808 0 0 0
6809 0 0 0
6810 0 0 0
6811 0 0 0
6812 0 0 0
6813 0 0 0
6814 0 0 0
6815 0 0 0
6816 0 0 0
6817 0 0 0
6818 0 0 0
6819 0 0 0
6820 0 0 0
6821 0 0 0
6822 0 0 0
6823 0 0 0
6824 0 0 0
6825 0 0 0
6826 0 0 0
6827 0 0 0
6828 0 0 0
6829 0 0 0
6830 0 0 0
6831 0 0 0
6832 0 0 0
6833 0 0 0
6834 0 0 0
6835 0 0 0
6836 0 0 0
6837 0 0 0
6838 0 0 0
6839 0 0 0
6840 0 0 0
6841 0 0 0
6842 0 0 0
6843 0 0 0
6844 0 0 0
6845 0 0 0
6846 0 0 0
6847 0 0 0
6848 0 0 0
6849 0 0 0
6850 0 0 0
6851 0 0 0
6852 0 0 0
6853 0 0 0
6854 0 0 0
6855 0 0 0
6856 0 0 0
6857 0 0 0
6858 0 0 0
6859 0 0 0
6860 0 0 0
6861 0 0 0
6862 0 0 0
6863 0 0 0
6864 0 0 0
6865 0 0 0
6866 0 0 0
6867 0 0 0
6868 0 0 0
6869 0 0 0
6870 0 0 0
6871 0 0 0
6872 0 0 0
6873 0 0 0
6874 0 0 0
6875 0 0 0
6876 0 0 0
6877 0 0 0
6878 0 0 0
6879 0 0 0
6880 0 0 0
6881 0 0 0
6882 0 0 0
6883 0 0 0
6884 0 0 0
6885 0 0 0
6886 0 0 0
6887 0 0 0
6888 0 0 0
6889 0 0 0
6890 0 0 0
6891 0 0 0
6892 0 0 0
6893 0 0 0
6894 0 0 0
6895 0 0 0
6896 0 0 0
6897 0 0 0
6898 0 0 0
6899 0 0 0
6900 0 0 0
6901 0 0 0
6902 0 0 0
6903 0 0 0
6904 0 0 0
6905 0 0 0
6906 0 0 0
6907 0 0 0
6908 0 0 0
6909 0 0 0
6910 0 0 0
6911 0 0 0
6912 0 0 0
6913 0 0 0
6914 0 0 0
6915 0 0 0
6916 0 0 0
6917 0 0 0
6918 0 0 0
6919 0 0 0
6920 0 0 0
6921 0 0 0
6922 0 0 0
6923 0 0 0
6924 0 0 0
6925 0 0 0
6926 0 0 0
6927 0 0 0
6928 0 0 0
6929 0 0 0
6930 0 0 0
6931 0 0 0
6932 0 0 0
6933 0 0 0
6934 0 0 0
6935 0 0 0
6936 0 0 0
6937 0 0 0
6938 0 0 0
6939 0 0 0
6940 0 0 0
6941 0 0 0
6942 0 0 0
6943 0 0 0
6944 0 0 0
6945 0 0 0
6946 0 0 0
6947 0 0 0
6948 0 0 0
6949 0 0 0
6950 0 0 0
6951 0 0 0
6952 0 0 0
6953 0 0 0
6954 0 0 0
6955 0 0 0
6956 0 0 0
6957 0 0 0
6958 0 0 0
6959 0 0 0
6960 0 0 0
6961 0 0 0
6962 0 0 0
6963 0 0 0
6964 0 0 0
6965 0 0 0
6966 0 0 0
6967 0 0 0
6968 0 0 0
6969 0 0 0
6970 0 0 0
6971 0 0 0
6972 0 0 0
6973 0 0 0
6974 0 0 0
6975 0 0 0
6976 0 0 0
6977 0 0 0
6978 0 0 0
6979 0 0 0
6980 0 0 0
6981 0 0 0
6982 0 0 0
6983 0 0 0
6984 0 0 0
7567 0 0 0
7568 0 0 0
7569 0 0 0
7570 0 0 0
7571 0 0 0
7572 0 0 0
7573 0 0 0
7574 0 0 0
7575 0 0 0
7576 0 0 0
7577 0 0 0
7578 0 0 0
7579 0 0 0
7580 0 0 0
7581 0 0 0
7582 0 0 0
7583 0 0 0
7584 0 0 0
7585 0 0 0
7586 0 0 0
7587 0 0 0
7588 0 0 0
7589 0 0 0
7590 0 0 0
7591 0 0 0
7592 0 0 0
7593 0 0 0
7594 0 0 0
7595 0 0 0
7596 0 0 0
7597 0 0 0
7598 0 0 0
7599 0 0 0
7600 0 0 0
7601 0 0 0
7602 0 0 0
7603 0 0 0
7604 0 0 0
7605 0 0 0
7606 0 0 0
7607 0 0 0
7608 0 0 0
7609 0 0 0
7610 0 0 0
7611 0 0 0
7612 0 0 0
7613 0 0 0
7614 0 0 0
7615 0 0 0
7616 0 0 0
7617 0 0 0
7618 0 0 0
7619 0 0 0
7620 0 0 0
7621 0 0 0
7622 0 0 0
7623 0 0 0
7624 0 0 0
7625 0 0 0
7626 0 0 0
7627 0 0 0
7628 0 0 0
7629 0 0 0
7630 0 0 0
7631 0 0 0
7632 0 0 0
7633 0 0 0
7634 0 0 0
7635 0 0 0
7636 0 0 0
7637 0 0 0
7638 0 0 0
7639 0 0 0
7640 0 0 0
7641 0 0 0
7642 0 0 0
7643 0 0 0
7644 0 0 0
7645 0 0 0
7646 0 0 0
7647 0 0 0
7648 0 0 0
7649 0 0 0
7650 0 0 0
7651 0 0 0
7652 0 0 0
7653 0 0 0
7654 0 0 0
7655 0 0 0
7656 0 0 0
7657 0 0 0
7658 0 0 0
7659 0 0 0
7660 0 0 0
7661 0 0 0
7662 0 0 0
7663 0 0 0
7664 0 0 0
7665 0 0 0
7666 0 0 0
7667 0 0 0
7668 0 0 0
7669 0 0 0
7670 0 0 0
7671 0 0 0
7672 0 0 0
7673 0 0 0
7674 0 0 0
7675 0 0 0
7676 0 0 0
7677 0 0 0
7678 0 0 0
7679 0 0 0
7680 0 0 0
7681 0 0 0
7682 0 0 0
7683 0 0 0
7684 0 0 0
7685 0 0 0
7686 0 0 0
7687 0 0 0
7688 0 0 0
7689 0 0 0
7690 0 0 0
7691 0 0 0
7692 0 0 0
7693 0 0 0
7694 0 0 0
7695 0 0 0
7696 0 0 0
7697 0 0 0
7698 0 0 0
7699 0 0 0
7700 0 0 0
7701 0 0 0
7702 0 0 0
7703 0 0 0
7704 0 0 0
7705 0 0 0
7706 0 0 0
7707 0 0 0
7708 0 0 0
7709 0 0 0
7710 0 0 0
7711 0 0 0
7712 0 0 0
7713 0 0 0
7714 0 0 0
7715 0 0 0
7716 0 0 0
7717 0 0 0
7718 0 0 0
7719 0 0 0
7720 0 0 0
7721 0 0 0
7722 0 0 0
7723 0 0 0
7724 0 0 0
7725 0 0 0
7726 0 0 0
7727 0 0 0
7728 0 0 0
7729 0 0 0
7730 0 0 0
7731 0 0 0
7732 0 0 0
7733 0 0 0
7734 0 0 0
7735 0 0 0
7736 0 0 0
7737 0 0 0
7738 0 0 0
7739 0 0 0
7740 0 0 0
7741 0 0 0
7742 0 0 0
7743 0 0 0
7744 0 0 0
7745 0 0 0
7746 0 0 0
7747 0 0 0
7748 0 0 0
7749 0 0 0
7750 0 0 0
7751 0 0 0
7752 0 0 0
7753 0 0 0
7754 0 0 0
7755 0 0 0
7756 0 0 0
7757 0 0 0
7758 0 0 0
7759 0 0 0
7760 0 0 0
8343 0 0 0
8344 0 0 0
8345 0 0 0
8346 0 0 0
8347 0 0 0
8348 0 0 0
8349 0 0 0
8350 0 0 0
8351 0 0 0
8352 0 0 0
8353 0 0 0
8354 0 0 0
8355 0 0 0
8356 0 0 0
8357 0 0 0
8358 0 0 0
8359 0 0 0
8360 0 0 0
8361 0 0 0
8362 0 0 0
8363 0 0 0
8364 0 0 0
8365 0 0 0
8366 0 0 0
8367 0 0 0
8368 0 0 0
8369 0 0 0
8370 0 0 0
8371 0 0 0
8372 0 0 0
8373 0 0 0
8374 0 0 0
8375 0 0 0
8376 0 0 0
8377 0 0 0
8378 0 0 0
8379 0 0 0
8380 0 0 0
8381 0 0 0
8382 0 0 0
8383 0 0 0
8384 0 0 0
8385 0 0 0
8386 0 0 0
8387 0 0 0
8388 0 0 0
8389 0 0 0
8390 0 0 0
8391 0 0 0
8392 0 0 0
8393 0 0 0
8394 0 0 0
8395 0 0 0
8396 0 0 0
8397 0 0 0
8398 0 0 0
8399 0 0 0
8400 0 0 0
8401 0 0 0
8402 0 0 0
8403 0 0 0
8404 0 0 0
8405 0 0 0
8406 0 0 0
8407 0 0 0
8408 0 0 0
8409 0 0 0
8410 0 0 0
8411 0 0 0
8412 0 0 0
8413 0 0 0
8414 0 0 0
8415 0 0 0
8416 0 0 0
8417 0 0 0
8418 0 0 0
8419 0 0 0
8420 0 0 0
8421 0 0 0
8422 0 0 0
8423 0 0 0
8424 0 0 0
8425 0 0 0
8426 0 0 0
8427 0 0 0
8428 0 0 0
8429 0 0 0
8430 0 0 0
8431 0 0 0
8432 0 0 0
8433 0 0 0
8434 0 0 0
8435 0 0 0
8436 0 0 0
8437 0 0 0
8438 0 0 0
8439 0 0 0
8440 0 0 0
8441 0 0 0
8442 0 0 0
8443 0 0 0
8444 0 0 0
8445 0 0 0
8446 0 0 0
8447 0 0 0
8448 0 0 0
8449 0 0 0
8450 0 0 0
8451 0 0 0
8452 0 0 0
8453 0 0 0
8454 0 0 0
8455 0 0 0
8456 0 0 0
8457 0 0 0
8458 0 0 0
8459 0 0 0
8460 0 0 0
8461 0 0 0
8462 0 0 0
8463 0 0 0
8464 0 0 0
8465 0 0 0
8466 0 0 0
8467 0 0 0
8468 0 0 0
8469 0 0 0
8470 0 0 0
8471 0 0 0
8472 0 0 0
8473 0 0 0
8474 0 0 0
8475 0 0 0
8476 0 0 0
8477 0 0 0
8478 0 0 0
8479 0 0 0
8480 0 0 0
8481 0 0 0
8482 0 0 0
8483 0 0 0
8484 0 0 0
8485 0 0 0
8486 0 0 0
8487 0 0 0
8488 0 0 0
8489 0 0 0
8490 0 0 0
8491 0 0 0
8492 0 0 0
8493 0 0 0
8494 0 0 0
8495 0 0 0
8496 0 0 0
8497 0 0 0
8498 0 0 0
8499 0 0 0
8500 0 0 0
8501 0 0 0
8502 0 0 0
8503 0 0 0
8504 0 0 0
8505 0 0 0
8506 0 0 0
8507 0 0 0
8508 0 0 0
8509 0 0 0
8510 0 0 0
8511 0 0 0
8512 0 0 0
8513 0 0 0
8514 0 0 0
8515 0 0 0
8516 0 0 0
8517 0 0 0
8518 0 0 0
8519 0 0 0
8520 0 0 0
8521 0 0 0
8522 0 0 0
8523 0 0 0
8524 0 0 0
8525 0 0 0
8526 0 0 0
8527 0 0 0
8528 0 0 0
8529 0 0 0
8530 0 0 0
8531 0 0 0
8532 0 0 0
8533 0 0 0
8534 0 0 0
8535 0 0 0
8536 0 0 0
