LAMMPS data file via write_data, version 22 Jul 2025, timestep = 0, units = metal

8096 atoms
2 atom types

0 136.400008 xlo xhi
0 324.846137 ylo yhi
-53 53 zlo zhi

Masses

1 26.9815386
2 14.007

Atoms # atomic

1 1 1.7050001 0.984401920978 1.04689075 0 0 0
2 1 0 3.937519089511 1.04689075 0 0 0
3 1 5.114983249999 0.984401920978 1.04689075 0 0 0
4 1 3.409983149999 3.937519089511 1.04689075 0 0 0
5 1 1.7050001 6.890665789511 1.04689075 0 0 0
6 1 0 9.843842020978 1.04689075 0 0 0
7 1 8.524983449999 0.984401920978 1.04689075 0 0 0
8 1 6.8200004 3.937519089511 1.04689075 0 0 0
9 1 5.114983249999 6.890665789511 1.04689075 0 0 0
10 1 3.409983149999 9.843842020978 1.04689075 0 0 0
11 1 1.7050001 12.796959189511 1.04689075 0 0 0
12 1 11.934983649999 0.984401920978 1.04689075 0 0 0
13 1 10.2300006 3.937519089511 1.04689075 0 0 0
14 1 8.524983449999 6.890665789511 1.04689075 0 0 0
15 1 6.8200004 9.843842020978 1.04689075 0 0 0
16 1 5.114983249999 12.796959189511 1.04689075 0 0 0
17 1 15.344983849999 0.984401920978 1.04689075 0 0 0
18 1 13.639983749999 3.937519089511 1.04689075 0 0 0
19 1 11.934983649999 6.890665789511 1.04689075 0 0 0
20 1 10.2300006 9.843842020978 1.04689075 0 0 0
21 1 8.524983449999 12.796959189511 1.04689075 0 0 0
22 2 0 1.968774310489 1.04689075 0 0 0
23 2 3.4100002 1.968774310489 1.04689075 0 0 0
24 2 1.705017150001 4.921891479022 1.04689075 0 0 0
25 2 0 7.875038179022 1.04689075 0 0 0
26 2 6.8200004 1.968774310489 1.04689075 0 0 0
27 2 5.115017350001 4.921891479022 1.04689075 0 0 0
28 2 3.4100002 7.875038179022 1.04689075 0 0 0
29 2 1.705017150001 10.828214410489 1.04689075 0 0 0
30 2 0 13.781331579022 1.04689075 0 0 0
31 2 10.230017650001 1.968774310489 1.04689075 0 0 0
32 2 8.5250005 4.921891479022 1.04689075 0 0 0
33 2 6.8200004 7.875038179022 1.04689075 0 0 0
34 2 5.115017350001 10.828214410489 1.04689075 0 0 0
35 2 3.4100002 13.781331579022 1.04689075 0 0 0
36 2 13.640017850001 1.968774310489 1.04689075 0 0 0
37 2 11.935017750001 4.921891479022 1.04689075 0 0 0
38 2 10.230017650001 7.875038179022 1.04689075 0 0 0
39 2 8.5250005 10.828214410489 1.04689075 0 0 0
40 2 6.8200004 13.781331579022 1.04689075 0 0 0
41 1 0 15.750135420978 1.04689075 0 0 0
42 1 3.409983149999 15.750135420978 1.04689075 0 0 0
43 1 1.7050001 18.703252589511 1.04689075 0 0 0
44 1 0 21.656399289511 1.04689075 0 0 0
45 1 6.8200004 15.750135420978 1.04689075 0 0 0
46 1 5.114983249999 18.703252589511 1.04689075 0 0 0
47 1 3.409983149999 21.656399289511 1.04689075 0 0 0
48 1 1.7050001 24.609545989511 1.04689075 0 0 0
49 1 0 27.562722220978 1.04689075 0 0 0
50 2 1.705017150001 16.734478279022 1.04689075 0 0 0
51 2 0 19.687654510489 1.04689075 0 0 0
52 2 5.115017350001 16.734478279022 1.04689075 0 0 0
53 2 3.4100002 19.687654510489 1.04689075 0 0 0
54 2 1.705017150001 22.640801210489 1.04689075 0 0 0
55 2 0 25.593947910489 1.04689075 0 0 0
56 1 15.344983849999 6.890665789511 1.04689075 0 0 0
57 1 13.639983749999 9.843842020978 1.04689075 0 0 0
58 1 11.934983649999 12.796959189511 1.04689075 0 0 0
59 2 32.3950019 28.547065079022 1.04689075 0 0 0
60 2 15.3450009 4.921891479022 1.04689075 0 0 0
61 2 13.640017850001 7.875038179022 1.04689075 0 0 0
62 2 11.935017750001 10.828214410489 1.04689075 0 0 0
63 2 10.230017650001 13.781331579022 1.04689075 0 0 0
64 2 28.985018750001 28.547065079022 1.04689075 0 0 0
65 2 30.690018850001 25.593947910489 1.04689075 0 0 0
66 1 10.2300006 15.750135420978 1.04689075 0 0 0
67 1 8.524983449999 18.703252589511 1.04689075 0 0 0
68 1 6.8200004 21.656399289511 1.04689075 0 0 0
69 1 5.114983249999 24.609545989511 1.04689075 0 0 0
70 1 3.409983149999 27.562722220978 1.04689075 0 0 0
71 2 32.3950019 22.640801210489 1.04689075 0 0 0
72 1 11.934983649999 18.703252589511 1.04689075 0 0 0
73 1 10.2300006 21.656399289511 1.04689075 0 0 0
74 1 8.524983449999 24.609545989511 1.04689075 0 0 0
75 1 6.8200004 27.562722220978 1.04689075 0 0 0
76 2 25.5750015 28.547065079022 1.04689075 0 0 0
77 1 13.639983749999 21.656399289511 1.04689075 0 0 0
78 1 11.934983649999 24.609545989511 1.04689075 0 0 0
79 1 10.2300006 27.562722220978 1.04689075 0 0 0
80 1 15.344983849999 24.609545989511 1.04689075 0 0 0
81 1 13.639983749999 27.562722220978 1.04689075 0 0 0
82 2 8.5250005 16.734478279022 1.04689075 0 0 0
83 2 6.8200004 19.687654510489 1.04689075 0 0 0
84 2 5.115017350001 22.640801210489 1.04689075 0 0 0
85 2 3.4100002 25.593947910489 1.04689075 0 0 0
86 2 1.705017150001 28.547065079022 1.04689075 0 0 0
87 2 11.935017750001 16.734478279022 1.04689075 0 0 0
88 2 10.230017650001 19.687654510489 1.04689075 0 0 0
89 2 8.5250005 22.640801210489 1.04689075 0 0 0
90 2 6.8200004 25.593947910489 1.04689075 0 0 0
91 2 5.115017350001 28.547065079022 1.04689075 0 0 0
92 2 27.280018650001 25.593947910489 1.04689075 0 0 0
93 2 13.640017850001 19.687654510489 1.04689075 0 0 0
94 2 11.935017750001 22.640801210489 1.04689075 0 0 0
95 2 10.230017650001 25.593947910489 1.04689075 0 0 0
96 2 8.5250005 28.547065079022 1.04689075 0 0 0
97 2 15.3450009 22.640801210489 1.04689075 0 0 0
98 2 13.640017850001 25.593947910489 1.04689075 0 0 0
99 2 11.935017750001 28.547065079022 1.04689075 0 0 0
100 2 15.3450009 28.547065079022 1.04689075 0 0 0
101 1 18.7550011 0.984401920978 1.04689075 0 0 0
102 1 17.050001 3.937519089511 1.04689075 0 0 0
103 1 22.164984249999 0.984401920978 1.04689075 0 0 0
104 1 20.459984149999 3.937519089511 1.04689075 0 0 0
105 1 18.7550011 6.890665789511 1.04689075 0 0 0
106 2 28.985018750001 22.640801210489 1.04689075 0 0 0
107 1 25.574984449999 0.984401920978 1.04689075 0 0 0
108 1 23.8700014 3.937519089511 1.04689075 0 0 0
109 1 22.164984249999 6.890665789511 1.04689075 0 0 0
110 1 20.459984149999 9.843842020978 1.04689075 0 0 0
111 2 30.690018850001 19.687654510489 1.04689075 0 0 0
112 1 28.984984649999 0.984401920978 1.04689075 0 0 0
113 1 27.2800016 3.937519089511 1.04689075 0 0 0
114 1 25.574984449999 6.890665789511 1.04689075 0 0 0
115 1 23.8700014 9.843842020978 1.04689075 0 0 0
116 1 22.164984249999 12.796959189511 1.04689075 0 0 0
117 1 32.394984849999 0.984401920978 1.04689075 0 0 0
118 1 30.689984749999 3.937519089511 1.04689075 0 0 0
119 1 28.984984649999 6.890665789511 1.04689075 0 0 0
120 1 27.2800016 9.843842020978 1.04689075 0 0 0
121 1 25.574984449999 12.796959189511 1.04689075 0 0 0
122 2 17.050001 1.968774310489 1.04689075 0 0 0
123 2 20.4600012 1.968774310489 1.04689075 0 0 0
124 2 18.755018150001 4.921891479022 1.04689075 0 0 0
125 2 17.050001 7.875038179022 1.04689075 0 0 0
126 2 23.8700014 1.968774310489 1.04689075 0 0 0
127 2 22.165018350001 4.921891479022 1.04689075 0 0 0
128 2 20.4600012 7.875038179022 1.04689075 0 0 0
129 2 32.3950019 16.734478279022 1.04689075 0 0 0
130 2 22.165018350001 28.547065079022 1.04689075 0 0 0
131 2 27.280018650001 1.968774310489 1.04689075 0 0 0
132 2 25.5750015 4.921891479022 1.04689075 0 0 0
133 2 23.8700014 7.875038179022 1.04689075 0 0 0
134 2 22.165018350001 10.828214410489 1.04689075 0 0 0
135 2 23.8700014 25.593947910489 1.04689075 0 0 0
136 2 30.690018850001 1.968774310489 1.04689075 0 0 0
137 2 28.985018750001 4.921891479022 1.04689075 0 0 0
138 2 27.280018650001 7.875038179022 1.04689075 0 0 0
139 2 25.5750015 10.828214410489 1.04689075 0 0 0
140 2 23.8700014 13.781331579022 1.04689075 0 0 0
141 2 25.5750015 22.640801210489 1.04689075 0 0 0
142 2 27.280018650001 19.687654510489 1.04689075 0 0 0
143 2 28.985018750001 16.734478279022 1.04689075 0 0 0
144 1 17.050001 21.656399289511 1.04689075 0 0 0
145 1 23.8700014 15.750135420978 1.04689075 0 0 0
146 1 22.164984249999 18.703252589511 1.04689075 0 0 0
147 1 20.459984149999 21.656399289511 1.04689075 0 0 0
148 1 18.7550011 24.609545989511 1.04689075 0 0 0
149 1 17.050001 27.562722220978 1.04689075 0 0 0
150 2 18.755018150001 28.547065079022 1.04689075 0 0 0
151 2 20.4600012 25.593947910489 1.04689075 0 0 0
152 2 22.165018350001 16.734478279022 1.04689075 0 0 0
153 2 20.4600012 19.687654510489 1.04689075 0 0 0
154 2 18.755018150001 22.640801210489 1.04689075 0 0 0
155 2 17.050001 25.593947910489 1.04689075 0 0 0
156 1 32.394984849999 6.890665789511 1.04689075 0 0 0
157 1 30.689984749999 9.843842020978 1.04689075 0 0 0
158 1 28.984984649999 12.796959189511 1.04689075 0 0 0
159 1 32.394984849999 12.796959189511 1.04689075 0 0 0
160 2 32.3950019 4.921891479022 1.04689075 0 0 0
161 2 30.690018850001 7.875038179022 1.04689075 0 0 0
162 2 28.985018750001 10.828214410489 1.04689075 0 0 0
163 2 27.280018650001 13.781331579022 1.04689075 0 0 0
164 2 32.3950019 10.828214410489 1.04689075 0 0 0
165 2 30.690018850001 13.781331579022 1.04689075 0 0 0
166 1 27.2800016 15.750135420978 1.04689075 0 0 0
167 1 25.574984449999 18.703252589511 1.04689075 0 0 0
168 1 23.8700014 21.656399289511 1.04689075 0 0 0
169 1 22.164984249999 24.609545989511 1.04689075 0 0 0
170 1 20.459984149999 27.562722220978 1.04689075 0 0 0
171 1 30.689984749999 15.750135420978 1.04689075 0 0 0
172 1 28.984984649999 18.703252589511 1.04689075 0 0 0
173 1 27.2800016 21.656399289511 1.04689075 0 0 0
174 1 25.574984449999 24.609545989511 1.04689075 0 0 0
175 1 23.8700014 27.562722220978 1.04689075 0 0 0
176 1 32.394984849999 18.703252589511 1.04689075 0 0 0
177 1 30.689984749999 21.656399289511 1.04689075 0 0 0
178 1 28.984984649999 24.609545989511 1.04689075 0 0 0
179 1 27.2800016 27.562722220978 1.04689075 0 0 0
180 1 32.394984849999 24.609545989511 1.04689075 0 0 0
181 1 30.689984749999 27.562722220978 1.04689075 0 0 0
182 2 25.5750015 16.734478279022 1.04689075 0 0 0
183 2 23.8700014 19.687654510489 1.04689075 0 0 0
184 2 22.165018350001 22.640801210489 1.04689075 0 0 0
737 1 1.7050001 30.515868920978 1.04689075 0 0 0
738 1 0 33.468986089511 1.04689075 0 0 0
739 1 5.114983249999 30.515868920978 1.04689075 0 0 0
740 1 3.409983149999 33.468986089511 1.04689075 0 0 0
741 1 1.7050001 36.422132789511 1.04689075 0 0 0
742 1 0 39.375309020978 1.04689075 0 0 0
743 1 8.524983449999 30.515868920978 1.04689075 0 0 0
744 1 6.8200004 33.468986089511 1.04689075 0 0 0
745 1 5.114983249999 36.422132789511 1.04689075 0 0 0
746 1 3.409983149999 39.375309020978 1.04689075 0 0 0
747 1 1.7050001 42.328426189511 1.04689075 0 0 0
748 1 11.934983649999 30.515868920978 1.04689075 0 0 0
749 1 10.2300006 33.468986089511 1.04689075 0 0 0
750 1 8.524983449999 36.422132789511 1.04689075 0 0 0
751 1 6.8200004 39.375309020978 1.04689075 0 0 0
752 1 5.114983249999 42.328426189511 1.04689075 0 0 0
753 1 15.344983849999 30.515868920978 1.04689075 0 0 0
754 1 13.639983749999 33.468986089511 1.04689075 0 0 0
755 1 11.934983649999 36.422132789511 1.04689075 0 0 0
756 1 10.2300006 39.375309020978 1.04689075 0 0 0
757 1 8.524983449999 42.328426189511 1.04689075 0 0 0
758 2 0 31.500241310489 1.04689075 0 0 0
759 2 3.4100002 31.500241310489 1.04689075 0 0 0
760 2 1.705017150001 34.453358479022 1.04689075 0 0 0
761 2 0 37.406505179022 1.04689075 0 0 0
762 2 6.8200004 31.500241310489 1.04689075 0 0 0
763 2 5.115017350001 34.453358479022 1.04689075 0 0 0
764 2 3.4100002 37.406505179022 1.04689075 0 0 0
765 2 1.705017150001 40.359681410489 1.04689075 0 0 0
766 2 0 43.312798579022 1.04689075 0 0 0
767 2 10.230017650001 31.500241310489 1.04689075 0 0 0
768 2 8.5250005 34.453358479022 1.04689075 0 0 0
769 2 6.8200004 37.406505179022 1.04689075 0 0 0
770 2 5.115017350001 40.359681410489 1.04689075 0 0 0
771 2 3.4100002 43.312798579022 1.04689075 0 0 0
772 2 13.640017850001 31.500241310489 1.04689075 0 0 0
773 2 11.935017750001 34.453358479022 1.04689075 0 0 0
774 2 10.230017650001 37.406505179022 1.04689075 0 0 0
775 2 8.5250005 40.359681410489 1.04689075 0 0 0
776 2 6.8200004 43.312798579022 1.04689075 0 0 0
777 1 0 45.281602420978 1.04689075 0 0 0
778 1 3.409983149999 45.281602420978 1.04689075 0 0 0
779 1 1.7050001 48.234719589511 1.04689075 0 0 0
780 1 0 51.187866289511 1.04689075 0 0 0
781 1 6.8200004 45.281602420978 1.04689075 0 0 0
782 1 5.114983249999 48.234719589511 1.04689075 0 0 0
783 1 3.409983149999 51.187866289511 1.04689075 0 0 0
784 1 1.7050001 54.141012989511 1.04689075 0 0 0
785 1 0 57.094189220977995 1.04689075 0 0 0
786 2 1.705017150001 46.265945279022 1.04689075 0 0 0
787 2 0 49.219121510489 1.04689075 0 0 0
788 2 5.115017350001 46.265945279022 1.04689075 0 0 0
789 2 3.4100002 49.219121510489 1.04689075 0 0 0
790 2 1.705017150001 52.172268210488994 1.04689075 0 0 0
791 2 0 55.125414910489 1.04689075 0 0 0
792 1 15.344983849999 36.422132789511 1.04689075 0 0 0
793 1 13.639983749999 39.375309020978 1.04689075 0 0 0
794 1 11.934983649999 42.328426189511 1.04689075 0 0 0
795 2 32.3950019 58.078532079022 1.04689075 0 0 0
796 2 15.3450009 34.453358479022 1.04689075 0 0 0
797 2 13.640017850001 37.406505179022 1.04689075 0 0 0
798 2 11.935017750001 40.359681410489 1.04689075 0 0 0
799 2 10.230017650001 43.312798579022 1.04689075 0 0 0
800 2 28.985018750001 58.078532079022 1.04689075 0 0 0
801 2 30.690018850001 55.125414910489 1.04689075 0 0 0
802 1 10.2300006 45.281602420978 1.04689075 0 0 0
803 1 8.524983449999 48.234719589511 1.04689075 0 0 0
804 1 6.8200004 51.187866289511 1.04689075 0 0 0
805 1 5.114983249999 54.141012989511 1.04689075 0 0 0
806 1 3.409983149999 57.094189220977995 1.04689075 0 0 0
807 2 32.3950019 52.172268210488994 1.04689075 0 0 0
808 1 11.934983649999 48.234719589511 1.04689075 0 0 0
809 1 10.2300006 51.187866289511 1.04689075 0 0 0
810 1 8.524983449999 54.141012989511 1.04689075 0 0 0
811 1 6.8200004 57.094189220977995 1.04689075 0 0 0
812 2 25.5750015 58.078532079022 1.04689075 0 0 0
813 1 13.639983749999 51.187866289511 1.04689075 0 0 0
814 1 11.934983649999 54.141012989511 1.04689075 0 0 0
815 1 10.2300006 57.094189220977995 1.04689075 0 0 0
816 1 15.344983849999 54.141012989511 1.04689075 0 0 0
817 1 13.639983749999 57.094189220977995 1.04689075 0 0 0
818 2 8.5250005 46.265945279022 1.04689075 0 0 0
819 2 6.8200004 49.219121510489 1.04689075 0 0 0
820 2 5.115017350001 52.172268210488994 1.04689075 0 0 0
821 2 3.4100002 55.125414910489 1.04689075 0 0 0
822 2 1.705017150001 58.078532079022 1.04689075 0 0 0
823 2 11.935017750001 46.265945279022 1.04689075 0 0 0
824 2 10.230017650001 49.219121510489 1.04689075 0 0 0
825 2 8.5250005 52.172268210488994 1.04689075 0 0 0
826 2 6.8200004 55.125414910489 1.04689075 0 0 0
827 2 5.115017350001 58.078532079022 1.04689075 0 0 0
828 2 27.280018650001 55.125414910489 1.04689075 0 0 0
829 2 13.640017850001 49.219121510489 1.04689075 0 0 0
830 2 11.935017750001 52.172268210488994 1.04689075 0 0 0
831 2 10.230017650001 55.125414910489 1.04689075 0 0 0
832 2 8.5250005 58.078532079022 1.04689075 0 0 0
833 2 15.3450009 52.172268210488994 1.04689075 0 0 0
834 2 13.640017850001 55.125414910489 1.04689075 0 0 0
835 2 11.935017750001 58.078532079022 1.04689075 0 0 0
836 2 15.3450009 58.078532079022 1.04689075 0 0 0
837 1 18.7550011 30.515868920978 1.04689075 0 0 0
838 1 17.050001 33.468986089511 1.04689075 0 0 0
839 1 22.164984249999 30.515868920978 1.04689075 0 0 0
840 1 20.459984149999 33.468986089511 1.04689075 0 0 0
841 1 18.7550011 36.422132789511 1.04689075 0 0 0
842 2 28.985018750001 52.172268210488994 1.04689075 0 0 0
843 1 25.574984449999 30.515868920978 1.04689075 0 0 0
844 1 23.8700014 33.468986089511 1.04689075 0 0 0
845 1 22.164984249999 36.422132789511 1.04689075 0 0 0
846 1 20.459984149999 39.375309020978 1.04689075 0 0 0
847 2 30.690018850001 49.219121510489 1.04689075 0 0 0
848 1 28.984984649999 30.515868920978 1.04689075 0 0 0
849 1 27.2800016 33.468986089511 1.04689075 0 0 0
850 1 25.574984449999 36.422132789511 1.04689075 0 0 0
851 1 23.8700014 39.375309020978 1.04689075 0 0 0
852 1 22.164984249999 42.328426189511 1.04689075 0 0 0
853 1 32.394984849999 30.515868920978 1.04689075 0 0 0
854 1 30.689984749999 33.468986089511 1.04689075 0 0 0
855 1 28.984984649999 36.422132789511 1.04689075 0 0 0
856 1 27.2800016 39.375309020978 1.04689075 0 0 0
857 1 25.574984449999 42.328426189511 1.04689075 0 0 0
858 2 17.050001 31.500241310489 1.04689075 0 0 0
859 2 20.4600012 31.500241310489 1.04689075 0 0 0
860 2 18.755018150001 34.453358479022 1.04689075 0 0 0
861 2 17.050001 37.406505179022 1.04689075 0 0 0
862 2 23.8700014 31.500241310489 1.04689075 0 0 0
863 2 22.165018350001 34.453358479022 1.04689075 0 0 0
864 2 20.4600012 37.406505179022 1.04689075 0 0 0
865 2 32.3950019 46.265945279022 1.04689075 0 0 0
866 2 22.165018350001 58.078532079022 1.04689075 0 0 0
867 2 27.280018650001 31.500241310489 1.04689075 0 0 0
868 2 25.5750015 34.453358479022 1.04689075 0 0 0
869 2 23.8700014 37.406505179022 1.04689075 0 0 0
870 2 22.165018350001 40.359681410489 1.04689075 0 0 0
871 2 23.8700014 55.125414910489 1.04689075 0 0 0
872 2 30.690018850001 31.500241310489 1.04689075 0 0 0
873 2 28.985018750001 34.453358479022 1.04689075 0 0 0
874 2 27.280018650001 37.406505179022 1.04689075 0 0 0
875 2 25.5750015 40.359681410489 1.04689075 0 0 0
876 2 23.8700014 43.312798579022 1.04689075 0 0 0
877 2 25.5750015 52.172268210488994 1.04689075 0 0 0
878 2 27.280018650001 49.219121510489 1.04689075 0 0 0
879 2 28.985018750001 46.265945279022 1.04689075 0 0 0
880 1 17.050001 51.187866289511 1.04689075 0 0 0
881 1 23.8700014 45.281602420978 1.04689075 0 0 0
882 1 22.164984249999 48.234719589511 1.04689075 0 0 0
883 1 20.459984149999 51.187866289511 1.04689075 0 0 0
884 1 18.7550011 54.141012989511 1.04689075 0 0 0
885 1 17.050001 57.094189220977995 1.04689075 0 0 0
886 2 18.755018150001 58.078532079022 1.04689075 0 0 0
887 2 20.4600012 55.125414910489 1.04689075 0 0 0
888 2 22.165018350001 46.265945279022 1.04689075 0 0 0
889 2 20.4600012 49.219121510489 1.04689075 0 0 0
890 2 18.755018150001 52.172268210488994 1.04689075 0 0 0
891 2 17.050001 55.125414910489 1.04689075 0 0 0
892 1 32.394984849999 36.422132789511 1.04689075 0 0 0
893 1 30.689984749999 39.375309020978 1.04689075 0 0 0
894 1 28.984984649999 42.328426189511 1.04689075 0 0 0
895 1 32.394984849999 42.328426189511 1.04689075 0 0 0
896 2 32.3950019 34.453358479022 1.04689075 0 0 0
897 2 30.690018850001 37.406505179022 1.04689075 0 0 0
898 2 28.985018750001 40.359681410489 1.04689075 0 0 0
899 2 27.280018650001 43.312798579022 1.04689075 0 0 0
900 2 32.3950019 40.359681410489 1.04689075 0 0 0
901 2 30.690018850001 43.312798579022 1.04689075 0 0 0
902 1 27.2800016 45.281602420978 1.04689075 0 0 0
903 1 25.574984449999 48.234719589511 1.04689075 0 0 0
904 1 23.8700014 51.187866289511 1.04689075 0 0 0
905 1 22.164984249999 54.141012989511 1.04689075 0 0 0
906 1 20.459984149999 57.094189220977995 1.04689075 0 0 0
907 1 30.689984749999 45.281602420978 1.04689075 0 0 0
908 1 28.984984649999 48.234719589511 1.04689075 0 0 0
909 1 27.2800016 51.187866289511 1.04689075 0 0 0
910 1 25.574984449999 54.141012989511 1.04689075 0 0 0
911 1 23.8700014 57.094189220977995 1.04689075 0 0 0
912 1 32.394984849999 48.234719589511 1.04689075 0 0 0
913 1 30.689984749999 51.187866289511 1.04689075 0 0 0
914 1 28.984984649999 54.141012989511 1.04689075 0 0 0
915 1 27.2800016 57.094189220977995 1.04689075 0 0 0
916 1 32.394984849999 54.141012989511 1.04689075 0 0 0
917 1 30.689984749999 57.094189220977995 1.04689075 0 0 0
918 2 25.5750015 46.265945279022 1.04689075 0 0 0
919 2 23.8700014 49.219121510489 1.04689075 0 0 0
920 2 22.165018350001 52.172268210488994 1.04689075 0 0 0
1473 1 1.7050001 60.047335920978 1.04689075 0 0 0
1474 1 0 63.000453089511 1.04689075 0 0 0
1475 1 5.114983249999 60.047335920978 1.04689075 0 0 0
1476 1 3.409983149999 63.000453089511 1.04689075 0 0 0
1477 1 1.7050001 65.953599789511 1.04689075 0 0 0
1478 1 0 68.906776020978 1.04689075 0 0 0
1479 1 8.524983449999 60.047335920978 1.04689075 0 0 0
1480 1 6.8200004 63.000453089511 1.04689075 0 0 0
1481 1 5.114983249999 65.953599789511 1.04689075 0 0 0
1482 1 3.409983149999 68.906776020978 1.04689075 0 0 0
1483 1 1.7050001 71.859893189511 1.04689075 0 0 0
1484 1 11.934983649999 60.047335920978 1.04689075 0 0 0
1485 1 10.2300006 63.000453089511 1.04689075 0 0 0
1486 1 8.524983449999 65.953599789511 1.04689075 0 0 0
1487 1 6.8200004 68.906776020978 1.04689075 0 0 0
1488 1 5.114983249999 71.859893189511 1.04689075 0 0 0
1489 1 15.344983849999 60.047335920978 1.04689075 0 0 0
1490 1 13.639983749999 63.000453089511 1.04689075 0 0 0
1491 1 11.934983649999 65.953599789511 1.04689075 0 0 0
1492 1 10.2300006 68.906776020978 1.04689075 0 0 0
1493 1 8.524983449999 71.859893189511 1.04689075 0 0 0
1494 2 0 61.031708310489 1.04689075 0 0 0
1495 2 3.4100002 61.031708310489 1.04689075 0 0 0
1496 2 1.705017150001 63.984825479022 1.04689075 0 0 0
1497 2 0 66.937972179022 1.04689075 0 0 0
1498 2 6.8200004 61.031708310489 1.04689075 0 0 0
1499 2 5.115017350001 63.984825479022 1.04689075 0 0 0
1500 2 3.4100002 66.937972179022 1.04689075 0 0 0
1501 2 1.705017150001 69.891148410489 1.04689075 0 0 0
1502 2 0 72.844265579022 1.04689075 0 0 0
1503 2 10.230017650001 61.031708310489 1.04689075 0 0 0
1504 2 8.5250005 63.984825479022 1.04689075 0 0 0
1505 2 6.8200004 66.937972179022 1.04689075 0 0 0
1506 2 5.115017350001 69.891148410489 1.04689075 0 0 0
1507 2 3.4100002 72.844265579022 1.04689075 0 0 0
1508 2 13.640017850001 61.031708310489 1.04689075 0 0 0
1509 2 11.935017750001 63.984825479022 1.04689075 0 0 0
1510 2 10.230017650001 66.937972179022 1.04689075 0 0 0
1511 2 8.5250005 69.891148410489 1.04689075 0 0 0
1512 2 6.8200004 72.844265579022 1.04689075 0 0 0
1513 1 0 74.813069420978 1.04689075 0 0 0
1514 1 3.409983149999 74.813069420978 1.04689075 0 0 0
1515 1 1.7050001 77.766186589511 1.04689075 0 0 0
1516 1 0 80.719333289511 1.04689075 0 0 0
1517 1 6.8200004 74.813069420978 1.04689075 0 0 0
1518 1 5.114983249999 77.766186589511 1.04689075 0 0 0
1519 1 3.409983149999 80.719333289511 1.04689075 0 0 0
1520 1 1.7050001 83.672479989511 1.04689075 0 0 0
1521 1 0 86.625656220978 1.04689075 0 0 0
1522 2 1.705017150001 75.797412279022 1.04689075 0 0 0
1523 2 0 78.750588510489 1.04689075 0 0 0
1524 2 5.115017350001 75.797412279022 1.04689075 0 0 0
1525 2 3.4100002 78.750588510489 1.04689075 0 0 0
1526 2 1.705017150001 81.703735210489 1.04689075 0 0 0
1527 2 0 84.656881910489 1.04689075 0 0 0
1528 1 15.344983849999 65.953599789511 1.04689075 0 0 0
1529 1 13.639983749999 68.906776020978 1.04689075 0 0 0
1530 1 11.934983649999 71.859893189511 1.04689075 0 0 0
1531 2 32.3950019 87.609999079022 1.04689075 0 0 0
1532 2 15.3450009 63.984825479022 1.04689075 0 0 0
1533 2 13.640017850001 66.937972179022 1.04689075 0 0 0
1534 2 11.935017750001 69.891148410489 1.04689075 0 0 0
1535 2 10.230017650001 72.844265579022 1.04689075 0 0 0
1536 2 28.985018750001 87.609999079022 1.04689075 0 0 0
1537 2 30.690018850001 84.656881910489 1.04689075 0 0 0
1538 1 10.2300006 74.813069420978 1.04689075 0 0 0
1539 1 8.524983449999 77.766186589511 1.04689075 0 0 0
1540 1 6.8200004 80.719333289511 1.04689075 0 0 0
1541 1 5.114983249999 83.672479989511 1.04689075 0 0 0
1542 1 3.409983149999 86.625656220978 1.04689075 0 0 0
1543 2 32.3950019 81.703735210489 1.04689075 0 0 0
1544 1 11.934983649999 77.766186589511 1.04689075 0 0 0
1545 1 10.2300006 80.719333289511 1.04689075 0 0 0
1546 1 8.524983449999 83.672479989511 1.04689075 0 0 0
1547 1 6.8200004 86.625656220978 1.04689075 0 0 0
1548 2 25.5750015 87.609999079022 1.04689075 0 0 0
1549 1 13.639983749999 80.719333289511 1.04689075 0 0 0
1550 1 11.934983649999 83.672479989511 1.04689075 0 0 0
1551 1 10.2300006 86.625656220978 1.04689075 0 0 0
1552 1 15.344983849999 83.672479989511 1.04689075 0 0 0
1553 1 13.639983749999 86.625656220978 1.04689075 0 0 0
1554 2 8.5250005 75.797412279022 1.04689075 0 0 0
1555 2 6.8200004 78.750588510489 1.04689075 0 0 0
1556 2 5.115017350001 81.703735210489 1.04689075 0 0 0
1557 2 3.4100002 84.656881910489 1.04689075 0 0 0
1558 2 1.705017150001 87.609999079022 1.04689075 0 0 0
1559 2 11.935017750001 75.797412279022 1.04689075 0 0 0
1560 2 10.230017650001 78.750588510489 1.04689075 0 0 0
1561 2 8.5250005 81.703735210489 1.04689075 0 0 0
1562 2 6.8200004 84.656881910489 1.04689075 0 0 0
1563 2 5.115017350001 87.609999079022 1.04689075 0 0 0
1564 2 27.280018650001 84.656881910489 1.04689075 0 0 0
1565 2 13.640017850001 78.750588510489 1.04689075 0 0 0
1566 2 11.935017750001 81.703735210489 1.04689075 0 0 0
1567 2 10.230017650001 84.656881910489 1.04689075 0 0 0
1568 2 8.5250005 87.609999079022 1.04689075 0 0 0
1569 2 15.3450009 81.703735210489 1.04689075 0 0 0
1570 2 13.640017850001 84.656881910489 1.04689075 0 0 0
1571 2 11.935017750001 87.609999079022 1.04689075 0 0 0
1572 2 15.3450009 87.609999079022 1.04689075 0 0 0
1573 1 18.7550011 60.047335920978 1.04689075 0 0 0
1574 1 17.050001 63.000453089511 1.04689075 0 0 0
1575 1 22.164984249999 60.047335920978 1.04689075 0 0 0
1576 1 20.459984149999 63.000453089511 1.04689075 0 0 0
1577 1 18.7550011 65.953599789511 1.04689075 0 0 0
1578 2 28.985018750001 81.703735210489 1.04689075 0 0 0
1579 1 25.574984449999 60.047335920978 1.04689075 0 0 0
1580 1 23.8700014 63.000453089511 1.04689075 0 0 0
1581 1 22.164984249999 65.953599789511 1.04689075 0 0 0
1582 1 20.459984149999 68.906776020978 1.04689075 0 0 0
1583 2 30.690018850001 78.750588510489 1.04689075 0 0 0
1584 1 28.984984649999 60.047335920978 1.04689075 0 0 0
1585 1 27.2800016 63.000453089511 1.04689075 0 0 0
1586 1 25.574984449999 65.953599789511 1.04689075 0 0 0
1587 1 23.8700014 68.906776020978 1.04689075 0 0 0
1588 1 22.164984249999 71.859893189511 1.04689075 0 0 0
1589 1 32.394984849999 60.047335920978 1.04689075 0 0 0
1590 1 30.689984749999 63.000453089511 1.04689075 0 0 0
1591 1 28.984984649999 65.953599789511 1.04689075 0 0 0
1592 1 27.2800016 68.906776020978 1.04689075 0 0 0
1593 1 25.574984449999 71.859893189511 1.04689075 0 0 0
1594 2 17.050001 61.031708310489 1.04689075 0 0 0
1595 2 20.4600012 61.031708310489 1.04689075 0 0 0
1596 2 18.755018150001 63.984825479022 1.04689075 0 0 0
1597 2 17.050001 66.937972179022 1.04689075 0 0 0
1598 2 23.8700014 61.031708310489 1.04689075 0 0 0
1599 2 22.165018350001 63.984825479022 1.04689075 0 0 0
1600 2 20.4600012 66.937972179022 1.04689075 0 0 0
1601 2 32.3950019 75.797412279022 1.04689075 0 0 0
1602 2 22.165018350001 87.609999079022 1.04689075 0 0 0
1603 2 27.280018650001 61.031708310489 1.04689075 0 0 0
1604 2 25.5750015 63.984825479022 1.04689075 0 0 0
1605 2 23.8700014 66.937972179022 1.04689075 0 0 0
1606 2 22.165018350001 69.891148410489 1.04689075 0 0 0
1607 2 23.8700014 84.656881910489 1.04689075 0 0 0
1608 2 30.690018850001 61.031708310489 1.04689075 0 0 0
1609 2 28.985018750001 63.984825479022 1.04689075 0 0 0
1610 2 27.280018650001 66.937972179022 1.04689075 0 0 0
1611 2 25.5750015 69.891148410489 1.04689075 0 0 0
1612 2 23.8700014 72.844265579022 1.04689075 0 0 0
1613 2 25.5750015 81.703735210489 1.04689075 0 0 0
1614 2 27.280018650001 78.750588510489 1.04689075 0 0 0
1615 2 28.985018750001 75.797412279022 1.04689075 0 0 0
1616 1 17.050001 80.719333289511 1.04689075 0 0 0
1617 1 23.8700014 74.813069420978 1.04689075 0 0 0
1618 1 22.164984249999 77.766186589511 1.04689075 0 0 0
1619 1 20.459984149999 80.719333289511 1.04689075 0 0 0
1620 1 18.7550011 83.672479989511 1.04689075 0 0 0
1621 1 17.050001 86.625656220978 1.04689075 0 0 0
1622 2 18.755018150001 87.609999079022 1.04689075 0 0 0
1623 2 20.4600012 84.656881910489 1.04689075 0 0 0
1624 2 22.165018350001 75.797412279022 1.04689075 0 0 0
1625 2 20.4600012 78.750588510489 1.04689075 0 0 0
1626 2 18.755018150001 81.703735210489 1.04689075 0 0 0
1627 2 17.050001 84.656881910489 1.04689075 0 0 0
1628 1 32.394984849999 65.953599789511 1.04689075 0 0 0
1629 1 30.689984749999 68.906776020978 1.04689075 0 0 0
1630 1 28.984984649999 71.859893189511 1.04689075 0 0 0
1631 1 32.394984849999 71.859893189511 1.04689075 0 0 0
1632 2 32.3950019 63.984825479022 1.04689075 0 0 0
1633 2 30.690018850001 66.937972179022 1.04689075 0 0 0
1634 2 28.985018750001 69.891148410489 1.04689075 0 0 0
1635 2 27.280018650001 72.844265579022 1.04689075 0 0 0
1636 2 32.3950019 69.891148410489 1.04689075 0 0 0
1637 2 30.690018850001 72.844265579022 1.04689075 0 0 0
1638 1 27.2800016 74.813069420978 1.04689075 0 0 0
1639 1 25.574984449999 77.766186589511 1.04689075 0 0 0
1640 1 23.8700014 80.719333289511 1.04689075 0 0 0
1641 1 22.164984249999 83.672479989511 1.04689075 0 0 0
1642 1 20.459984149999 86.625656220978 1.04689075 0 0 0
1643 1 30.689984749999 74.813069420978 1.04689075 0 0 0
1644 1 28.984984649999 77.766186589511 1.04689075 0 0 0
1645 1 27.2800016 80.719333289511 1.04689075 0 0 0
1646 1 25.574984449999 83.672479989511 1.04689075 0 0 0
1647 1 23.8700014 86.625656220978 1.04689075 0 0 0
1648 1 32.394984849999 77.766186589511 1.04689075 0 0 0
1649 1 30.689984749999 80.719333289511 1.04689075 0 0 0
1650 1 28.984984649999 83.672479989511 1.04689075 0 0 0
1651 1 27.2800016 86.625656220978 1.04689075 0 0 0
1652 1 32.394984849999 83.672479989511 1.04689075 0 0 0
1653 1 30.689984749999 86.625656220978 1.04689075 0 0 0
1654 2 25.5750015 75.797412279022 1.04689075 0 0 0
1655 2 23.8700014 78.750588510489 1.04689075 0 0 0
1656 2 22.165018350001 81.703735210489 1.04689075 0 0 0
2209 1 1.7050001 89.578802920978 1.04689075 0 0 0
2210 1 0 92.531920089511 1.04689075 0 0 0
2211 1 5.114983249999 89.578802920978 1.04689075 0 0 0
2212 1 3.409983149999 92.531920089511 1.04689075 0 0 0
2213 1 1.7050001 95.48506678951101 1.04689075 0 0 0
2214 1 0 98.438243020978 1.04689075 0 0 0
2215 1 8.524983449999 89.578802920978 1.04689075 0 0 0
2216 1 6.8200004 92.531920089511 1.04689075 0 0 0
2217 1 5.114983249999 95.48506678951101 1.04689075 0 0 0
2218 1 3.409983149999 98.438243020978 1.04689075 0 0 0
2219 1 1.7050001 101.391360189511 1.04689075 0 0 0
2220 1 11.934983649999 89.578802920978 1.04689075 0 0 0
2221 1 10.2300006 92.531920089511 1.04689075 0 0 0
2222 1 8.524983449999 95.48506678951101 1.04689075 0 0 0
2223 1 6.8200004 98.438243020978 1.04689075 0 0 0
2224 1 5.114983249999 101.391360189511 1.04689075 0 0 0
2225 1 15.344983849999 89.578802920978 1.04689075 0 0 0
2226 1 13.639983749999 92.531920089511 1.04689075 0 0 0
2227 1 11.934983649999 95.48506678951101 1.04689075 0 0 0
2228 1 10.2300006 98.438243020978 1.04689075 0 0 0
2229 1 8.524983449999 101.391360189511 1.04689075 0 0 0
2230 2 0 90.563175310489 1.04689075 0 0 0
2231 2 3.4100002 90.563175310489 1.04689075 0 0 0
2232 2 1.705017150001 93.516292479022 1.04689075 0 0 0
2233 2 0 96.469439179022 1.04689075 0 0 0
2234 2 6.8200004 90.563175310489 1.04689075 0 0 0
2235 2 5.115017350001 93.516292479022 1.04689075 0 0 0
2236 2 3.4100002 96.469439179022 1.04689075 0 0 0
2237 2 1.705017150001 99.422615410489 1.04689075 0 0 0
2238 2 0 102.375732579022 1.04689075 0 0 0
2239 2 10.230017650001 90.563175310489 1.04689075 0 0 0
2240 2 8.5250005 93.516292479022 1.04689075 0 0 0
2241 2 6.8200004 96.469439179022 1.04689075 0 0 0
2242 2 5.115017350001 99.422615410489 1.04689075 0 0 0
2243 2 3.4100002 102.375732579022 1.04689075 0 0 0
2244 2 13.640017850001 90.563175310489 1.04689075 0 0 0
2245 2 11.935017750001 93.516292479022 1.04689075 0 0 0
2246 2 10.230017650001 96.469439179022 1.04689075 0 0 0
2247 2 8.5250005 99.422615410489 1.04689075 0 0 0
2248 2 6.8200004 102.375732579022 1.04689075 0 0 0
2249 1 0 104.344536420978 1.04689075 0 0 0
2250 1 3.409983149999 104.344536420978 1.04689075 0 0 0
2251 1 1.7050001 107.297653589511 1.04689075 0 0 0
2252 1 0 110.250800289511 1.04689075 0 0 0
2253 1 6.8200004 104.344536420978 1.04689075 0 0 0
2254 1 5.114983249999 107.297653589511 1.04689075 0 0 0
2255 1 3.409983149999 110.250800289511 1.04689075 0 0 0
2256 1 1.7050001 113.203946989511 1.04689075 0 0 0
2257 1 0 116.15712322097801 1.04689075 0 0 0
2258 2 1.705017150001 105.328879279022 1.04689075 0 0 0
2259 2 0 108.282055510489 1.04689075 0 0 0
2260 2 5.115017350001 105.328879279022 1.04689075 0 0 0
2261 2 3.4100002 108.282055510489 1.04689075 0 0 0
2262 2 1.705017150001 111.235202210489 1.04689075 0 0 0
2263 2 0 114.188348910489 1.04689075 0 0 0
2264 1 15.344983849999 95.48506678951101 1.04689075 0 0 0
2265 1 13.639983749999 98.438243020978 1.04689075 0 0 0
2266 1 11.934983649999 101.391360189511 1.04689075 0 0 0
2267 2 32.3950019 117.14146607902201 1.04689075 0 0 0
2268 2 15.3450009 93.516292479022 1.04689075 0 0 0
2269 2 13.640017850001 96.469439179022 1.04689075 0 0 0
2270 2 11.935017750001 99.422615410489 1.04689075 0 0 0
2271 2 10.230017650001 102.375732579022 1.04689075 0 0 0
2272 2 28.985018750001 117.14146607902201 1.04689075 0 0 0
2273 2 30.690018850001 114.188348910489 1.04689075 0 0 0
2274 1 10.2300006 104.344536420978 1.04689075 0 0 0
2275 1 8.524983449999 107.297653589511 1.04689075 0 0 0
2276 1 6.8200004 110.250800289511 1.04689075 0 0 0
2277 1 5.114983249999 113.203946989511 1.04689075 0 0 0
2278 1 3.409983149999 116.15712322097801 1.04689075 0 0 0
2279 2 32.3950019 111.235202210489 1.04689075 0 0 0
2280 1 11.934983649999 107.297653589511 1.04689075 0 0 0
2281 1 10.2300006 110.250800289511 1.04689075 0 0 0
2282 1 8.524983449999 113.203946989511 1.04689075 0 0 0
2283 1 6.8200004 116.15712322097801 1.04689075 0 0 0
2284 2 25.5750015 117.14146607902201 1.04689075 0 0 0
2285 1 13.639983749999 110.250800289511 1.04689075 0 0 0
2286 1 11.934983649999 113.203946989511 1.04689075 0 0 0
2287 1 10.2300006 116.15712322097801 1.04689075 0 0 0
2288 1 15.344983849999 113.203946989511 1.04689075 0 0 0
2289 1 13.639983749999 116.15712322097801 1.04689075 0 0 0
2290 2 8.5250005 105.328879279022 1.04689075 0 0 0
2291 2 6.8200004 108.282055510489 1.04689075 0 0 0
2292 2 5.115017350001 111.235202210489 1.04689075 0 0 0
2293 2 3.4100002 114.188348910489 1.04689075 0 0 0
2294 2 1.705017150001 117.14146607902201 1.04689075 0 0 0
2295 2 11.935017750001 105.328879279022 1.04689075 0 0 0
2296 2 10.230017650001 108.282055510489 1.04689075 0 0 0
2297 2 8.5250005 111.235202210489 1.04689075 0 0 0
2298 2 6.8200004 114.188348910489 1.04689075 0 0 0
2299 2 5.115017350001 117.14146607902201 1.04689075 0 0 0
2300 2 27.280018650001 114.188348910489 1.04689075 0 0 0
2301 2 13.640017850001 108.282055510489 1.04689075 0 0 0
2302 2 11.935017750001 111.235202210489 1.04689075 0 0 0
2303 2 10.230017650001 114.188348910489 1.04689075 0 0 0
2304 2 8.5250005 117.14146607902201 1.04689075 0 0 0
2305 2 15.3450009 111.235202210489 1.04689075 0 0 0
2306 2 13.640017850001 114.188348910489 1.04689075 0 0 0
2307 2 11.935017750001 117.14146607902201 1.04689075 0 0 0
2308 2 15.3450009 117.14146607902201 1.04689075 0 0 0
2309 1 18.7550011 89.578802920978 1.04689075 0 0 0
2310 1 17.050001 92.531920089511 1.04689075 0 0 0
2311 1 22.164984249999 89.578802920978 1.04689075 0 0 0
2312 1 20.459984149999 92.531920089511 1.04689075 0 0 0
2313 1 18.7550011 95.48506678951101 1.04689075 0 0 0
2314 2 28.985018750001 111.235202210489 1.04689075 0 0 0
2315 1 25.574984449999 89.578802920978 1.04689075 0 0 0
2316 1 23.8700014 92.531920089511 1.04689075 0 0 0
2317 1 22.164984249999 95.48506678951101 1.04689075 0 0 0
2318 1 20.459984149999 98.438243020978 1.04689075 0 0 0
2319 2 30.690018850001 108.282055510489 1.04689075 0 0 0
2320 1 28.984984649999 89.578802920978 1.04689075 0 0 0
2321 1 27.2800016 92.531920089511 1.04689075 0 0 0
2322 1 25.574984449999 95.48506678951101 1.04689075 0 0 0
2323 1 23.8700014 98.438243020978 1.04689075 0 0 0
2324 1 22.164984249999 101.391360189511 1.04689075 0 0 0
2325 1 32.394984849999 89.578802920978 1.04689075 0 0 0
2326 1 30.689984749999 92.531920089511 1.04689075 0 0 0
2327 1 28.984984649999 95.48506678951101 1.04689075 0 0 0
2328 1 27.2800016 98.438243020978 1.04689075 0 0 0
2329 1 25.574984449999 101.391360189511 1.04689075 0 0 0
2330 2 17.050001 90.563175310489 1.04689075 0 0 0
2331 2 20.4600012 90.563175310489 1.04689075 0 0 0
2332 2 18.755018150001 93.516292479022 1.04689075 0 0 0
2333 2 17.050001 96.469439179022 1.04689075 0 0 0
2334 2 23.8700014 90.563175310489 1.04689075 0 0 0
2335 2 22.165018350001 93.516292479022 1.04689075 0 0 0
2336 2 20.4600012 96.469439179022 1.04689075 0 0 0
2337 2 32.3950019 105.328879279022 1.04689075 0 0 0
2338 2 22.165018350001 117.14146607902201 1.04689075 0 0 0
2339 2 27.280018650001 90.563175310489 1.04689075 0 0 0
2340 2 25.5750015 93.516292479022 1.04689075 0 0 0
2341 2 23.8700014 96.469439179022 1.04689075 0 0 0
2342 2 22.165018350001 99.422615410489 1.04689075 0 0 0
2343 2 23.8700014 114.188348910489 1.04689075 0 0 0
2344 2 30.690018850001 90.563175310489 1.04689075 0 0 0
2345 2 28.985018750001 93.516292479022 1.04689075 0 0 0
2346 2 27.280018650001 96.469439179022 1.04689075 0 0 0
2347 2 25.5750015 99.422615410489 1.04689075 0 0 0
2348 2 23.8700014 102.375732579022 1.04689075 0 0 0
2349 2 25.5750015 111.235202210489 1.04689075 0 0 0
2350 2 27.280018650001 108.282055510489 1.04689075 0 0 0
2351 2 28.985018750001 105.328879279022 1.04689075 0 0 0
2352 1 17.050001 110.250800289511 1.04689075 0 0 0
2353 1 23.8700014 104.344536420978 1.04689075 0 0 0
2354 1 22.164984249999 107.297653589511 1.04689075 0 0 0
2355 1 20.459984149999 110.250800289511 1.04689075 0 0 0
2356 1 18.7550011 113.203946989511 1.04689075 0 0 0
2357 1 17.050001 116.15712322097801 1.04689075 0 0 0
2358 2 18.755018150001 117.14146607902201 1.04689075 0 0 0
2359 2 20.4600012 114.188348910489 1.04689075 0 0 0
2360 2 22.165018350001 105.328879279022 1.04689075 0 0 0
2361 2 20.4600012 108.282055510489 1.04689075 0 0 0
2362 2 18.755018150001 111.235202210489 1.04689075 0 0 0
2363 2 17.050001 114.188348910489 1.04689075 0 0 0
2364 1 32.394984849999 95.48506678951101 1.04689075 0 0 0
2365 1 30.689984749999 98.438243020978 1.04689075 0 0 0
2366 1 28.984984649999 101.391360189511 1.04689075 0 0 0
2367 1 32.394984849999 101.391360189511 1.04689075 0 0 0
2368 2 32.3950019 93.516292479022 1.04689075 0 0 0
2369 2 30.690018850001 96.469439179022 1.04689075 0 0 0
2370 2 28.985018750001 99.422615410489 1.04689075 0 0 0
2371 2 27.280018650001 102.375732579022 1.04689075 0 0 0
2372 2 32.3950019 99.422615410489 1.04689075 0 0 0
2373 2 30.690018850001 102.375732579022 1.04689075 0 0 0
2374 1 27.2800016 104.344536420978 1.04689075 0 0 0
2375 1 25.574984449999 107.297653589511 1.04689075 0 0 0
2376 1 23.8700014 110.250800289511 1.04689075 0 0 0
2377 1 22.164984249999 113.203946989511 1.04689075 0 0 0
2378 1 20.459984149999 116.15712322097801 1.04689075 0 0 0
2379 1 30.689984749999 104.344536420978 1.04689075 0 0 0
2380 1 28.984984649999 107.297653589511 1.04689075 0 0 0
2381 1 27.2800016 110.250800289511 1.04689075 0 0 0
2382 1 25.574984449999 113.203946989511 1.04689075 0 0 0
2383 1 23.8700014 116.15712322097801 1.04689075 0 0 0
2384 1 32.394984849999 107.297653589511 1.04689075 0 0 0
2385 1 30.689984749999 110.250800289511 1.04689075 0 0 0
2386 1 28.984984649999 113.203946989511 1.04689075 0 0 0
2387 1 27.2800016 116.15712322097801 1.04689075 0 0 0
2388 1 32.394984849999 113.203946989511 1.04689075 0 0 0
2389 1 30.689984749999 116.15712322097801 1.04689075 0 0 0
2390 2 25.5750015 105.328879279022 1.04689075 0 0 0
2391 2 23.8700014 108.282055510489 1.04689075 0 0 0
2392 2 22.165018350001 111.235202210489 1.04689075 0 0 0
2945 1 1.7050001 119.110269920978 1.04689075 0 0 0
2946 1 0 122.063387089511 1.04689075 0 0 0
2947 1 5.114983249999 119.110269920978 1.04689075 0 0 0
2948 1 3.409983149999 122.063387089511 1.04689075 0 0 0
2949 1 1.7050001 125.016533789511 1.04689075 0 0 0
2950 1 0 127.969710020978 1.04689075 0 0 0
2951 1 8.524983449999 119.110269920978 1.04689075 0 0 0
2952 1 6.8200004 122.063387089511 1.04689075 0 0 0
2953 1 5.114983249999 125.016533789511 1.04689075 0 0 0
2954 1 3.409983149999 127.969710020978 1.04689075 0 0 0
2955 1 1.7050001 130.922827189511 1.04689075 0 0 0
2956 1 11.934983649999 119.110269920978 1.04689075 0 0 0
2957 1 10.2300006 122.063387089511 1.04689075 0 0 0
2958 1 8.524983449999 125.016533789511 1.04689075 0 0 0
2959 1 6.8200004 127.969710020978 1.04689075 0 0 0
2960 1 5.114983249999 130.922827189511 1.04689075 0 0 0
2961 1 15.344983849999 119.110269920978 1.04689075 0 0 0
2962 1 13.639983749999 122.063387089511 1.04689075 0 0 0
2963 1 11.934983649999 125.016533789511 1.04689075 0 0 0
2964 1 10.2300006 127.969710020978 1.04689075 0 0 0
2965 1 8.524983449999 130.922827189511 1.04689075 0 0 0
2966 2 0 120.094642310489 1.04689075 0 0 0
2967 2 3.4100002 120.094642310489 1.04689075 0 0 0
2968 2 1.705017150001 123.04775947902199 1.04689075 0 0 0
2969 2 0 126.000906179022 1.04689075 0 0 0
2970 2 6.8200004 120.094642310489 1.04689075 0 0 0
2971 2 5.115017350001 123.04775947902199 1.04689075 0 0 0
2972 2 3.4100002 126.000906179022 1.04689075 0 0 0
2973 2 1.705017150001 128.954082410489 1.04689075 0 0 0
2974 2 0 131.907199579022 1.04689075 0 0 0
2975 2 10.230017650001 120.094642310489 1.04689075 0 0 0
2976 2 8.5250005 123.04775947902199 1.04689075 0 0 0
2977 2 6.8200004 126.000906179022 1.04689075 0 0 0
2978 2 5.115017350001 128.954082410489 1.04689075 0 0 0
2979 2 3.4100002 131.907199579022 1.04689075 0 0 0
2980 2 13.640017850001 120.094642310489 1.04689075 0 0 0
2981 2 11.935017750001 123.04775947902199 1.04689075 0 0 0
2982 2 10.230017650001 126.000906179022 1.04689075 0 0 0
2983 2 8.5250005 128.954082410489 1.04689075 0 0 0
2984 2 6.8200004 131.907199579022 1.04689075 0 0 0
2985 1 0 133.876003420978 1.04689075 0 0 0
2986 1 3.409983149999 133.876003420978 1.04689075 0 0 0
2987 1 1.7050001 136.829120589511 1.04689075 0 0 0
2988 1 0 139.782267289511 1.04689075 0 0 0
2989 1 6.8200004 133.876003420978 1.04689075 0 0 0
2990 1 5.114983249999 136.829120589511 1.04689075 0 0 0
2991 1 3.409983149999 139.782267289511 1.04689075 0 0 0
2992 1 1.7050001 142.735413989511 1.04689075 0 0 0
2993 1 0 145.688590220978 1.04689075 0 0 0
2994 2 1.705017150001 134.860346279022 1.04689075 0 0 0
2995 2 0 137.813522510489 1.04689075 0 0 0
2996 2 5.115017350001 134.860346279022 1.04689075 0 0 0
2997 2 3.4100002 137.813522510489 1.04689075 0 0 0
2998 2 1.705017150001 140.766669210489 1.04689075 0 0 0
2999 2 0 143.719815910489 1.04689075 0 0 0
3000 1 15.344983849999 125.016533789511 1.04689075 0 0 0
3001 1 13.639983749999 127.969710020978 1.04689075 0 0 0
3002 1 11.934983649999 130.922827189511 1.04689075 0 0 0
3003 2 32.3950019 146.672933079022 1.04689075 0 0 0
3004 2 15.3450009 123.04775947902199 1.04689075 0 0 0
3005 2 13.640017850001 126.000906179022 1.04689075 0 0 0
3006 2 11.935017750001 128.954082410489 1.04689075 0 0 0
3007 2 10.230017650001 131.907199579022 1.04689075 0 0 0
3008 2 28.985018750001 146.672933079022 1.04689075 0 0 0
3009 2 30.690018850001 143.719815910489 1.04689075 0 0 0
3010 1 10.2300006 133.876003420978 1.04689075 0 0 0
3011 1 8.524983449999 136.829120589511 1.04689075 0 0 0
3012 1 6.8200004 139.782267289511 1.04689075 0 0 0
3013 1 5.114983249999 142.735413989511 1.04689075 0 0 0
3014 1 3.409983149999 145.688590220978 1.04689075 0 0 0
3015 2 32.3950019 140.766669210489 1.04689075 0 0 0
3016 1 11.934983649999 136.829120589511 1.04689075 0 0 0
3017 1 10.2300006 139.782267289511 1.04689075 0 0 0
3018 1 8.524983449999 142.735413989511 1.04689075 0 0 0
3019 1 6.8200004 145.688590220978 1.04689075 0 0 0
3020 2 25.5750015 146.672933079022 1.04689075 0 0 0
3021 1 13.639983749999 139.782267289511 1.04689075 0 0 0
3022 1 11.934983649999 142.735413989511 1.04689075 0 0 0
3023 1 10.2300006 145.688590220978 1.04689075 0 0 0
3024 1 15.344983849999 142.735413989511 1.04689075 0 0 0
3025 1 13.639983749999 145.688590220978 1.04689075 0 0 0
3026 2 8.5250005 134.860346279022 1.04689075 0 0 0
3027 2 6.8200004 137.813522510489 1.04689075 0 0 0
3028 2 5.115017350001 140.766669210489 1.04689075 0 0 0
3029 2 3.4100002 143.719815910489 1.04689075 0 0 0
3030 2 1.705017150001 146.672933079022 1.04689075 0 0 0
3031 2 11.935017750001 134.860346279022 1.04689075 0 0 0
3032 2 10.230017650001 137.813522510489 1.04689075 0 0 0
3033 2 8.5250005 140.766669210489 1.04689075 0 0 0
3034 2 6.8200004 143.719815910489 1.04689075 0 0 0
3035 2 5.115017350001 146.672933079022 1.04689075 0 0 0
3036 2 27.280018650001 143.719815910489 1.04689075 0 0 0
3037 2 13.640017850001 137.813522510489 1.04689075 0 0 0
3038 2 11.935017750001 140.766669210489 1.04689075 0 0 0
3039 2 10.230017650001 143.719815910489 1.04689075 0 0 0
3040 2 8.5250005 146.672933079022 1.04689075 0 0 0
3041 2 15.3450009 140.766669210489 1.04689075 0 0 0
3042 2 13.640017850001 143.719815910489 1.04689075 0 0 0
3043 2 11.935017750001 146.672933079022 1.04689075 0 0 0
3044 2 15.3450009 146.672933079022 1.04689075 0 0 0
3045 1 18.7550011 119.110269920978 1.04689075 0 0 0
3046 1 17.050001 122.063387089511 1.04689075 0 0 0
3047 1 22.164984249999 119.110269920978 1.04689075 0 0 0
3048 1 20.459984149999 122.063387089511 1.04689075 0 0 0
3049 1 18.7550011 125.016533789511 1.04689075 0 0 0
3050 2 28.985018750001 140.766669210489 1.04689075 0 0 0
3051 1 25.574984449999 119.110269920978 1.04689075 0 0 0
3052 1 23.8700014 122.063387089511 1.04689075 0 0 0
3053 1 22.164984249999 125.016533789511 1.04689075 0 0 0
3054 1 20.459984149999 127.969710020978 1.04689075 0 0 0
3055 2 30.690018850001 137.813522510489 1.04689075 0 0 0
3056 1 28.984984649999 119.110269920978 1.04689075 0 0 0
3057 1 27.2800016 122.063387089511 1.04689075 0 0 0
3058 1 25.574984449999 125.016533789511 1.04689075 0 0 0
3059 1 23.8700014 127.969710020978 1.04689075 0 0 0
3060 1 22.164984249999 130.922827189511 1.04689075 0 0 0
3061 1 32.394984849999 119.110269920978 1.04689075 0 0 0
3062 1 30.689984749999 122.063387089511 1.04689075 0 0 0
3063 1 28.984984649999 125.016533789511 1.04689075 0 0 0
3064 1 27.2800016 127.969710020978 1.04689075 0 0 0
3065 1 25.574984449999 130.922827189511 1.04689075 0 0 0
3066 2 17.050001 120.094642310489 1.04689075 0 0 0
3067 2 20.4600012 120.094642310489 1.04689075 0 0 0
3068 2 18.755018150001 123.04775947902199 1.04689075 0 0 0
3069 2 17.050001 126.000906179022 1.04689075 0 0 0
3070 2 23.8700014 120.094642310489 1.04689075 0 0 0
3071 2 22.165018350001 123.04775947902199 1.04689075 0 0 0
3072 2 20.4600012 126.000906179022 1.04689075 0 0 0
3073 2 32.3950019 134.860346279022 1.04689075 0 0 0
3074 2 22.165018350001 146.672933079022 1.04689075 0 0 0
3075 2 27.280018650001 120.094642310489 1.04689075 0 0 0
3076 2 25.5750015 123.04775947902199 1.04689075 0 0 0
3077 2 23.8700014 126.000906179022 1.04689075 0 0 0
3078 2 22.165018350001 128.954082410489 1.04689075 0 0 0
3079 2 23.8700014 143.719815910489 1.04689075 0 0 0
3080 2 30.690018850001 120.094642310489 1.04689075 0 0 0
3081 2 28.985018750001 123.04775947902199 1.04689075 0 0 0
3082 2 27.280018650001 126.000906179022 1.04689075 0 0 0
3083 2 25.5750015 128.954082410489 1.04689075 0 0 0
3084 2 23.8700014 131.907199579022 1.04689075 0 0 0
3085 2 25.5750015 140.766669210489 1.04689075 0 0 0
3086 2 27.280018650001 137.813522510489 1.04689075 0 0 0
3087 2 28.985018750001 134.860346279022 1.04689075 0 0 0
3088 1 17.050001 139.782267289511 1.04689075 0 0 0
3089 1 23.8700014 133.876003420978 1.04689075 0 0 0
3090 1 22.164984249999 136.829120589511 1.04689075 0 0 0
3091 1 20.459984149999 139.782267289511 1.04689075 0 0 0
3092 1 18.7550011 142.735413989511 1.04689075 0 0 0
3093 1 17.050001 145.688590220978 1.04689075 0 0 0
3094 2 18.755018150001 146.672933079022 1.04689075 0 0 0
3095 2 20.4600012 143.719815910489 1.04689075 0 0 0
3096 2 22.165018350001 134.860346279022 1.04689075 0 0 0
3097 2 20.4600012 137.813522510489 1.04689075 0 0 0
3098 2 18.755018150001 140.766669210489 1.04689075 0 0 0
3099 2 17.050001 143.719815910489 1.04689075 0 0 0
3100 1 32.394984849999 125.016533789511 1.04689075 0 0 0
3101 1 30.689984749999 127.969710020978 1.04689075 0 0 0
3102 1 28.984984649999 130.922827189511 1.04689075 0 0 0
3103 1 32.394984849999 130.922827189511 1.04689075 0 0 0
3104 2 32.3950019 123.04775947902199 1.04689075 0 0 0
3105 2 30.690018850001 126.000906179022 1.04689075 0 0 0
3106 2 28.985018750001 128.954082410489 1.04689075 0 0 0
3107 2 27.280018650001 131.907199579022 1.04689075 0 0 0
3108 2 32.3950019 128.954082410489 1.04689075 0 0 0
3109 2 30.690018850001 131.907199579022 1.04689075 0 0 0
3110 1 27.2800016 133.876003420978 1.04689075 0 0 0
3111 1 25.574984449999 136.829120589511 1.04689075 0 0 0
3112 1 23.8700014 139.782267289511 1.04689075 0 0 0
3113 1 22.164984249999 142.735413989511 1.04689075 0 0 0
3114 1 20.459984149999 145.688590220978 1.04689075 0 0 0
3115 1 30.689984749999 133.876003420978 1.04689075 0 0 0
3116 1 28.984984649999 136.829120589511 1.04689075 0 0 0
3117 1 27.2800016 139.782267289511 1.04689075 0 0 0
3118 1 25.574984449999 142.735413989511 1.04689075 0 0 0
3119 1 23.8700014 145.688590220978 1.04689075 0 0 0
3120 1 32.394984849999 136.829120589511 1.04689075 0 0 0
3121 1 30.689984749999 139.782267289511 1.04689075 0 0 0
3122 1 28.984984649999 142.735413989511 1.04689075 0 0 0
3123 1 27.2800016 145.688590220978 1.04689075 0 0 0
3124 1 32.394984849999 142.735413989511 1.04689075 0 0 0
3125 1 30.689984749999 145.688590220978 1.04689075 0 0 0
3126 2 25.5750015 134.860346279022 1.04689075 0 0 0
3127 2 23.8700014 137.813522510489 1.04689075 0 0 0
3128 2 22.165018350001 140.766669210489 1.04689075 0 0 0
3681 1 1.7050001 148.641736920978 1.04689075 0 0 0
3682 1 0 151.594854089511 1.04689075 0 0 0
3683 1 5.114983249999 148.641736920978 1.04689075 0 0 0
3684 1 3.409983149999 151.594854089511 1.04689075 0 0 0
3685 1 1.7050001 154.54800078951098 1.04689075 0 0 0
3686 1 0 157.501177020978 1.04689075 0 0 0
3687 1 8.524983449999 148.641736920978 1.04689075 0 0 0
3688 1 6.8200004 151.594854089511 1.04689075 0 0 0
3689 1 5.114983249999 154.54800078951098 1.04689075 0 0 0
3690 1 3.409983149999 157.501177020978 1.04689075 0 0 0
3691 1 1.7050001 160.454294189511 1.04689075 0 0 0
3692 1 11.934983649999 148.641736920978 1.04689075 0 0 0
3693 1 10.2300006 151.594854089511 1.04689075 0 0 0
3694 1 8.524983449999 154.54800078951098 1.04689075 0 0 0
3695 1 6.8200004 157.501177020978 1.04689075 0 0 0
3696 1 5.114983249999 160.454294189511 1.04689075 0 0 0
3697 1 15.344983849999 148.641736920978 1.04689075 0 0 0
3698 1 13.639983749999 151.594854089511 1.04689075 0 0 0
3699 1 11.934983649999 154.54800078951098 1.04689075 0 0 0
3700 1 10.2300006 157.501177020978 1.04689075 0 0 0
3701 1 8.524983449999 160.454294189511 1.04689075 0 0 0
3702 2 0 149.626109310489 1.04689075 0 0 0
3703 2 3.4100002 149.626109310489 1.04689075 0 0 0
3704 2 1.705017150001 152.579226479022 1.04689075 0 0 0
3705 2 0 155.532373179022 1.04689075 0 0 0
3706 2 6.8200004 149.626109310489 1.04689075 0 0 0
3707 2 5.115017350001 152.579226479022 1.04689075 0 0 0
3708 2 3.4100002 155.532373179022 1.04689075 0 0 0
3709 2 1.705017150001 158.485549410489 1.04689075 0 0 0
3710 2 0 161.438666579022 1.04689075 0 0 0
3711 2 10.230017650001 149.626109310489 1.04689075 0 0 0
3712 2 8.5250005 152.579226479022 1.04689075 0 0 0
3713 2 6.8200004 155.532373179022 1.04689075 0 0 0
3714 2 5.115017350001 158.485549410489 1.04689075 0 0 0
3715 2 3.4100002 161.438666579022 1.04689075 0 0 0
3716 2 13.640017850001 149.626109310489 1.04689075 0 0 0
3717 2 11.935017750001 152.579226479022 1.04689075 0 0 0
3718 2 10.230017650001 155.532373179022 1.04689075 0 0 0
3719 2 8.5250005 158.485549410489 1.04689075 0 0 0
3720 2 6.8200004 161.438666579022 1.04689075 0 0 0
3721 1 0 163.407470420978 1.04689075 0 0 0
3722 1 3.409983149999 163.407470420978 1.04689075 0 0 0
3723 1 1.7050001 166.360587589511 1.04689075 0 0 0
3724 1 0 169.313734289511 1.04689075 0 0 0
3725 1 6.8200004 163.407470420978 1.04689075 0 0 0
3726 1 5.114983249999 166.360587589511 1.04689075 0 0 0
3727 1 3.409983149999 169.313734289511 1.04689075 0 0 0
3728 1 1.7050001 172.26688098951098 1.04689075 0 0 0
3729 1 0 175.220057220978 1.04689075 0 0 0
3730 2 1.705017150001 164.391813279022 1.04689075 0 0 0
3731 2 0 167.344989510489 1.04689075 0 0 0
3732 2 5.115017350001 164.391813279022 1.04689075 0 0 0
3733 2 3.4100002 167.344989510489 1.04689075 0 0 0
3734 2 1.705017150001 170.298136210489 1.04689075 0 0 0
3735 2 0 173.25128291048898 1.04689075 0 0 0
3736 1 15.344983849999 154.54800078951098 1.04689075 0 0 0
3737 1 13.639983749999 157.501177020978 1.04689075 0 0 0
3738 1 11.934983649999 160.454294189511 1.04689075 0 0 0
3739 2 32.3950019 176.20440007902198 1.04689075 0 0 0
3740 2 15.3450009 152.579226479022 1.04689075 0 0 0
3741 2 13.640017850001 155.532373179022 1.04689075 0 0 0
3742 2 11.935017750001 158.485549410489 1.04689075 0 0 0
3743 2 10.230017650001 161.438666579022 1.04689075 0 0 0
3744 2 28.985018750001 176.20440007902198 1.04689075 0 0 0
3745 2 30.690018850001 173.25128291048898 1.04689075 0 0 0
3746 1 10.2300006 163.407470420978 1.04689075 0 0 0
3747 1 8.524983449999 166.360587589511 1.04689075 0 0 0
3748 1 6.8200004 169.313734289511 1.04689075 0 0 0
3749 1 5.114983249999 172.26688098951098 1.04689075 0 0 0
3750 1 3.409983149999 175.220057220978 1.04689075 0 0 0
3751 2 32.3950019 170.298136210489 1.04689075 0 0 0
3752 1 11.934983649999 166.360587589511 1.04689075 0 0 0
3753 1 10.2300006 169.313734289511 1.04689075 0 0 0
3754 1 8.524983449999 172.26688098951098 1.04689075 0 0 0
3755 1 6.8200004 175.220057220978 1.04689075 0 0 0
3756 2 25.5750015 176.20440007902198 1.04689075 0 0 0
3757 1 13.639983749999 169.313734289511 1.04689075 0 0 0
3758 1 11.934983649999 172.26688098951098 1.04689075 0 0 0
3759 1 10.2300006 175.220057220978 1.04689075 0 0 0
3760 1 15.344983849999 172.26688098951098 1.04689075 0 0 0
3761 1 13.639983749999 175.220057220978 1.04689075 0 0 0
3762 2 8.5250005 164.391813279022 1.04689075 0 0 0
3763 2 6.8200004 167.344989510489 1.04689075 0 0 0
3764 2 5.115017350001 170.298136210489 1.04689075 0 0 0
3765 2 3.4100002 173.25128291048898 1.04689075 0 0 0
3766 2 1.705017150001 176.20440007902198 1.04689075 0 0 0
3767 2 11.935017750001 164.391813279022 1.04689075 0 0 0
3768 2 10.230017650001 167.344989510489 1.04689075 0 0 0
3769 2 8.5250005 170.298136210489 1.04689075 0 0 0
3770 2 6.8200004 173.25128291048898 1.04689075 0 0 0
3771 2 5.115017350001 176.20440007902198 1.04689075 0 0 0
3772 2 27.280018650001 173.25128291048898 1.04689075 0 0 0
3773 2 13.640017850001 167.344989510489 1.04689075 0 0 0
3774 2 11.935017750001 170.298136210489 1.04689075 0 0 0
3775 2 10.230017650001 173.25128291048898 1.04689075 0 0 0
3776 2 8.5250005 176.20440007902198 1.04689075 0 0 0
3777 2 15.3450009 170.298136210489 1.04689075 0 0 0
3778 2 13.640017850001 173.25128291048898 1.04689075 0 0 0
3779 2 11.935017750001 176.20440007902198 1.04689075 0 0 0
3780 2 15.3450009 176.20440007902198 1.04689075 0 0 0
3781 1 18.7550011 148.641736920978 1.04689075 0 0 0
3782 1 17.050001 151.594854089511 1.04689075 0 0 0
3783 1 22.164984249999 148.641736920978 1.04689075 0 0 0
3784 1 20.459984149999 151.594854089511 1.04689075 0 0 0
3785 1 18.7550011 154.54800078951098 1.04689075 0 0 0
3786 2 28.985018750001 170.298136210489 1.04689075 0 0 0
3787 1 25.574984449999 148.641736920978 1.04689075 0 0 0
3788 1 23.8700014 151.594854089511 1.04689075 0 0 0
3789 1 22.164984249999 154.54800078951098 1.04689075 0 0 0
3790 1 20.459984149999 157.501177020978 1.04689075 0 0 0
3791 2 30.690018850001 167.344989510489 1.04689075 0 0 0
3792 1 28.984984649999 148.641736920978 1.04689075 0 0 0
3793 1 27.2800016 151.594854089511 1.04689075 0 0 0
3794 1 25.574984449999 154.54800078951098 1.04689075 0 0 0
3795 1 23.8700014 157.501177020978 1.04689075 0 0 0
3796 1 22.164984249999 160.454294189511 1.04689075 0 0 0
3797 1 32.394984849999 148.641736920978 1.04689075 0 0 0
3798 1 30.689984749999 151.594854089511 1.04689075 0 0 0
3799 1 28.984984649999 154.54800078951098 1.04689075 0 0 0
3800 1 27.2800016 157.501177020978 1.04689075 0 0 0
3801 1 25.574984449999 160.454294189511 1.04689075 0 0 0
3802 2 17.050001 149.626109310489 1.04689075 0 0 0
3803 2 20.4600012 149.626109310489 1.04689075 0 0 0
3804 2 18.755018150001 152.579226479022 1.04689075 0 0 0
3805 2 17.050001 155.532373179022 1.04689075 0 0 0
3806 2 23.8700014 149.626109310489 1.04689075 0 0 0
3807 2 22.165018350001 152.579226479022 1.04689075 0 0 0
3808 2 20.4600012 155.532373179022 1.04689075 0 0 0
3809 2 32.3950019 164.391813279022 1.04689075 0 0 0
3810 2 22.165018350001 176.20440007902198 1.04689075 0 0 0
3811 2 27.280018650001 149.626109310489 1.04689075 0 0 0
3812 2 25.5750015 152.579226479022 1.04689075 0 0 0
3813 2 23.8700014 155.532373179022 1.04689075 0 0 0
3814 2 22.165018350001 158.485549410489 1.04689075 0 0 0
3815 2 23.8700014 173.25128291048898 1.04689075 0 0 0
3816 2 30.690018850001 149.626109310489 1.04689075 0 0 0
3817 2 28.985018750001 152.579226479022 1.04689075 0 0 0
3818 2 27.280018650001 155.532373179022 1.04689075 0 0 0
3819 2 25.5750015 158.485549410489 1.04689075 0 0 0
3820 2 23.8700014 161.438666579022 1.04689075 0 0 0
3821 2 25.5750015 170.298136210489 1.04689075 0 0 0
3822 2 27.280018650001 167.344989510489 1.04689075 0 0 0
3823 2 28.985018750001 164.391813279022 1.04689075 0 0 0
3824 1 17.050001 169.313734289511 1.04689075 0 0 0
3825 1 23.8700014 163.407470420978 1.04689075 0 0 0
3826 1 22.164984249999 166.360587589511 1.04689075 0 0 0
3827 1 20.459984149999 169.313734289511 1.04689075 0 0 0
3828 1 18.7550011 172.26688098951098 1.04689075 0 0 0
3829 1 17.050001 175.220057220978 1.04689075 0 0 0
3830 2 18.755018150001 176.20440007902198 1.04689075 0 0 0
3831 2 20.4600012 173.25128291048898 1.04689075 0 0 0
3832 2 22.165018350001 164.391813279022 1.04689075 0 0 0
3833 2 20.4600012 167.344989510489 1.04689075 0 0 0
3834 2 18.755018150001 170.298136210489 1.04689075 0 0 0
3835 2 17.050001 173.25128291048898 1.04689075 0 0 0
3836 1 32.394984849999 154.54800078951098 1.04689075 0 0 0
3837 1 30.689984749999 157.501177020978 1.04689075 0 0 0
3838 1 28.984984649999 160.454294189511 1.04689075 0 0 0
3839 1 32.394984849999 160.454294189511 1.04689075 0 0 0
3840 2 32.3950019 152.579226479022 1.04689075 0 0 0
3841 2 30.690018850001 155.532373179022 1.04689075 0 0 0
3842 2 28.985018750001 158.485549410489 1.04689075 0 0 0
3843 2 27.280018650001 161.438666579022 1.04689075 0 0 0
3844 2 32.3950019 158.485549410489 1.04689075 0 0 0
3845 2 30.690018850001 161.438666579022 1.04689075 0 0 0
3846 1 27.2800016 163.407470420978 1.04689075 0 0 0
3847 1 25.574984449999 166.360587589511 1.04689075 0 0 0
3848 1 23.8700014 169.313734289511 1.04689075 0 0 0
3849 1 22.164984249999 172.26688098951098 1.04689075 0 0 0
3850 1 20.459984149999 175.220057220978 1.04689075 0 0 0
3851 1 30.689984749999 163.407470420978 1.04689075 0 0 0
3852 1 28.984984649999 166.360587589511 1.04689075 0 0 0
3853 1 27.2800016 169.313734289511 1.04689075 0 0 0
3854 1 25.574984449999 172.26688098951098 1.04689075 0 0 0
3855 1 23.8700014 175.220057220978 1.04689075 0 0 0
3856 1 32.394984849999 166.360587589511 1.04689075 0 0 0
3857 1 30.689984749999 169.313734289511 1.04689075 0 0 0
3858 1 28.984984649999 172.26688098951098 1.04689075 0 0 0
3859 1 27.2800016 175.220057220978 1.04689075 0 0 0
3860 1 32.394984849999 172.26688098951098 1.04689075 0 0 0
3861 1 30.689984749999 175.220057220978 1.04689075 0 0 0
3862 2 25.5750015 164.391813279022 1.04689075 0 0 0
3863 2 23.8700014 167.344989510489 1.04689075 0 0 0
3864 2 22.165018350001 170.298136210489 1.04689075 0 0 0
4417 1 1.7050001 178.173203920978 1.04689075 0 0 0
4418 1 0 181.126321089511 1.04689075 0 0 0
4419 1 5.114983249999 178.173203920978 1.04689075 0 0 0
4420 1 3.409983149999 181.126321089511 1.04689075 0 0 0
4421 1 1.7050001 184.079467789511 1.04689075 0 0 0
4422 1 0 187.032644020978 1.04689075 0 0 0
4423 1 8.524983449999 178.173203920978 1.04689075 0 0 0
4424 1 6.8200004 181.126321089511 1.04689075 0 0 0
4425 1 5.114983249999 184.079467789511 1.04689075 0 0 0
4426 1 3.409983149999 187.032644020978 1.04689075 0 0 0
4427 1 1.7050001 189.985761189511 1.04689075 0 0 0
4428 1 11.934983649999 178.173203920978 1.04689075 0 0 0
4429 1 10.2300006 181.126321089511 1.04689075 0 0 0
4430 1 8.524983449999 184.079467789511 1.04689075 0 0 0
4431 1 6.8200004 187.032644020978 1.04689075 0 0 0
4432 1 5.114983249999 189.985761189511 1.04689075 0 0 0
4433 1 15.344983849999 178.173203920978 1.04689075 0 0 0
4434 1 13.639983749999 181.126321089511 1.04689075 0 0 0
4435 1 11.934983649999 184.079467789511 1.04689075 0 0 0
4436 1 10.2300006 187.032644020978 1.04689075 0 0 0
4437 1 8.524983449999 189.985761189511 1.04689075 0 0 0
4438 2 0 179.15757631048902 1.04689075 0 0 0
4439 2 3.4100002 179.15757631048902 1.04689075 0 0 0
4440 2 1.705017150001 182.11069347902202 1.04689075 0 0 0
4441 2 0 185.063840179022 1.04689075 0 0 0
4442 2 6.8200004 179.15757631048902 1.04689075 0 0 0
4443 2 5.115017350001 182.11069347902202 1.04689075 0 0 0
4444 2 3.4100002 185.063840179022 1.04689075 0 0 0
4445 2 1.705017150001 188.01701641048902 1.04689075 0 0 0
4446 2 0 190.97013357902202 1.04689075 0 0 0
4447 2 10.230017650001 179.15757631048902 1.04689075 0 0 0
4448 2 8.5250005 182.11069347902202 1.04689075 0 0 0
4449 2 6.8200004 185.063840179022 1.04689075 0 0 0
4450 2 5.115017350001 188.01701641048902 1.04689075 0 0 0
4451 2 3.4100002 190.97013357902202 1.04689075 0 0 0
4452 2 13.640017850001 179.15757631048902 1.04689075 0 0 0
4453 2 11.935017750001 182.11069347902202 1.04689075 0 0 0
4454 2 10.230017650001 185.063840179022 1.04689075 0 0 0
4455 2 8.5250005 188.01701641048902 1.04689075 0 0 0
4456 2 6.8200004 190.97013357902202 1.04689075 0 0 0
4457 1 0 192.93893742097802 1.04689075 0 0 0
4458 1 3.409983149999 192.93893742097802 1.04689075 0 0 0
4459 1 1.7050001 195.89205458951102 1.04689075 0 0 0
4460 1 0 198.845201289511 1.04689075 0 0 0
4461 1 6.8200004 192.93893742097802 1.04689075 0 0 0
4462 1 5.114983249999 195.89205458951102 1.04689075 0 0 0
4463 1 3.409983149999 198.845201289511 1.04689075 0 0 0
4464 1 1.7050001 201.798347989511 1.04689075 0 0 0
4465 1 0 204.751524220978 1.04689075 0 0 0
4466 2 1.705017150001 193.923280279022 1.04689075 0 0 0
4467 2 0 196.87645651048902 1.04689075 0 0 0
4468 2 5.115017350001 193.923280279022 1.04689075 0 0 0
4469 2 3.4100002 196.87645651048902 1.04689075 0 0 0
4470 2 1.705017150001 199.829603210489 1.04689075 0 0 0
4471 2 0 202.782749910489 1.04689075 0 0 0
4472 1 15.344983849999 184.079467789511 1.04689075 0 0 0
4473 1 13.639983749999 187.032644020978 1.04689075 0 0 0
4474 1 11.934983649999 189.985761189511 1.04689075 0 0 0
4475 2 32.3950019 205.735867079022 1.04689075 0 0 0
4476 2 15.3450009 182.11069347902202 1.04689075 0 0 0
4477 2 13.640017850001 185.063840179022 1.04689075 0 0 0
4478 2 11.935017750001 188.01701641048902 1.04689075 0 0 0
4479 2 10.230017650001 190.97013357902202 1.04689075 0 0 0
4480 2 28.985018750001 205.735867079022 1.04689075 0 0 0
4481 2 30.690018850001 202.782749910489 1.04689075 0 0 0
4482 1 10.2300006 192.93893742097802 1.04689075 0 0 0
4483 1 8.524983449999 195.89205458951102 1.04689075 0 0 0
4484 1 6.8200004 198.845201289511 1.04689075 0 0 0
4485 1 5.114983249999 201.798347989511 1.04689075 0 0 0
4486 1 3.409983149999 204.751524220978 1.04689075 0 0 0
4487 2 32.3950019 199.829603210489 1.04689075 0 0 0
4488 1 11.934983649999 195.89205458951102 1.04689075 0 0 0
4489 1 10.2300006 198.845201289511 1.04689075 0 0 0
4490 1 8.524983449999 201.798347989511 1.04689075 0 0 0
4491 1 6.8200004 204.751524220978 1.04689075 0 0 0
4492 2 25.5750015 205.735867079022 1.04689075 0 0 0
4493 1 13.639983749999 198.845201289511 1.04689075 0 0 0
4494 1 11.934983649999 201.798347989511 1.04689075 0 0 0
4495 1 10.2300006 204.751524220978 1.04689075 0 0 0
4496 1 15.344983849999 201.798347989511 1.04689075 0 0 0
4497 1 13.639983749999 204.751524220978 1.04689075 0 0 0
4498 2 8.5250005 193.923280279022 1.04689075 0 0 0
4499 2 6.8200004 196.87645651048902 1.04689075 0 0 0
4500 2 5.115017350001 199.829603210489 1.04689075 0 0 0
4501 2 3.4100002 202.782749910489 1.04689075 0 0 0
4502 2 1.705017150001 205.735867079022 1.04689075 0 0 0
4503 2 11.935017750001 193.923280279022 1.04689075 0 0 0
4504 2 10.230017650001 196.87645651048902 1.04689075 0 0 0
4505 2 8.5250005 199.829603210489 1.04689075 0 0 0
4506 2 6.8200004 202.782749910489 1.04689075 0 0 0
4507 2 5.115017350001 205.735867079022 1.04689075 0 0 0
4508 2 27.280018650001 202.782749910489 1.04689075 0 0 0
4509 2 13.640017850001 196.87645651048902 1.04689075 0 0 0
4510 2 11.935017750001 199.829603210489 1.04689075 0 0 0
4511 2 10.230017650001 202.782749910489 1.04689075 0 0 0
4512 2 8.5250005 205.735867079022 1.04689075 0 0 0
4513 2 15.3450009 199.829603210489 1.04689075 0 0 0
4514 2 13.640017850001 202.782749910489 1.04689075 0 0 0
4515 2 11.935017750001 205.735867079022 1.04689075 0 0 0
4516 2 15.3450009 205.735867079022 1.04689075 0 0 0
4517 1 18.7550011 178.173203920978 1.04689075 0 0 0
4518 1 17.050001 181.126321089511 1.04689075 0 0 0
4519 1 22.164984249999 178.173203920978 1.04689075 0 0 0
4520 1 20.459984149999 181.126321089511 1.04689075 0 0 0
4521 1 18.7550011 184.079467789511 1.04689075 0 0 0
4522 2 28.985018750001 199.829603210489 1.04689075 0 0 0
4523 1 25.574984449999 178.173203920978 1.04689075 0 0 0
4524 1 23.8700014 181.126321089511 1.04689075 0 0 0
4525 1 22.164984249999 184.079467789511 1.04689075 0 0 0
4526 1 20.459984149999 187.032644020978 1.04689075 0 0 0
4527 2 30.690018850001 196.87645651048902 1.04689075 0 0 0
4528 1 28.984984649999 178.173203920978 1.04689075 0 0 0
4529 1 27.2800016 181.126321089511 1.04689075 0 0 0
4530 1 25.574984449999 184.079467789511 1.04689075 0 0 0
4531 1 23.8700014 187.032644020978 1.04689075 0 0 0
4532 1 22.164984249999 189.985761189511 1.04689075 0 0 0
4533 1 32.394984849999 178.173203920978 1.04689075 0 0 0
4534 1 30.689984749999 181.126321089511 1.04689075 0 0 0
4535 1 28.984984649999 184.079467789511 1.04689075 0 0 0
4536 1 27.2800016 187.032644020978 1.04689075 0 0 0
4537 1 25.574984449999 189.985761189511 1.04689075 0 0 0
4538 2 17.050001 179.15757631048902 1.04689075 0 0 0
4539 2 20.4600012 179.15757631048902 1.04689075 0 0 0
4540 2 18.755018150001 182.11069347902202 1.04689075 0 0 0
4541 2 17.050001 185.063840179022 1.04689075 0 0 0
4542 2 23.8700014 179.15757631048902 1.04689075 0 0 0
4543 2 22.165018350001 182.11069347902202 1.04689075 0 0 0
4544 2 20.4600012 185.063840179022 1.04689075 0 0 0
4545 2 32.3950019 193.923280279022 1.04689075 0 0 0
4546 2 22.165018350001 205.735867079022 1.04689075 0 0 0
4547 2 27.280018650001 179.15757631048902 1.04689075 0 0 0
4548 2 25.5750015 182.11069347902202 1.04689075 0 0 0
4549 2 23.8700014 185.063840179022 1.04689075 0 0 0
4550 2 22.165018350001 188.01701641048902 1.04689075 0 0 0
4551 2 23.8700014 202.782749910489 1.04689075 0 0 0
4552 2 30.690018850001 179.15757631048902 1.04689075 0 0 0
4553 2 28.985018750001 182.11069347902202 1.04689075 0 0 0
4554 2 27.280018650001 185.063840179022 1.04689075 0 0 0
4555 2 25.5750015 188.01701641048902 1.04689075 0 0 0
4556 2 23.8700014 190.97013357902202 1.04689075 0 0 0
4557 2 25.5750015 199.829603210489 1.04689075 0 0 0
4558 2 27.280018650001 196.87645651048902 1.04689075 0 0 0
4559 2 28.985018750001 193.923280279022 1.04689075 0 0 0
4560 1 17.050001 198.845201289511 1.04689075 0 0 0
4561 1 23.8700014 192.93893742097802 1.04689075 0 0 0
4562 1 22.164984249999 195.89205458951102 1.04689075 0 0 0
4563 1 20.459984149999 198.845201289511 1.04689075 0 0 0
4564 1 18.7550011 201.798347989511 1.04689075 0 0 0
4565 1 17.050001 204.751524220978 1.04689075 0 0 0
4566 2 18.755018150001 205.735867079022 1.04689075 0 0 0
4567 2 20.4600012 202.782749910489 1.04689075 0 0 0
4568 2 22.165018350001 193.923280279022 1.04689075 0 0 0
4569 2 20.4600012 196.87645651048902 1.04689075 0 0 0
4570 2 18.755018150001 199.829603210489 1.04689075 0 0 0
4571 2 17.050001 202.782749910489 1.04689075 0 0 0
4572 1 32.394984849999 184.079467789511 1.04689075 0 0 0
4573 1 30.689984749999 187.032644020978 1.04689075 0 0 0
4574 1 28.984984649999 189.985761189511 1.04689075 0 0 0
4575 1 32.394984849999 189.985761189511 1.04689075 0 0 0
4576 2 32.3950019 182.11069347902202 1.04689075 0 0 0
4577 2 30.690018850001 185.063840179022 1.04689075 0 0 0
4578 2 28.985018750001 188.01701641048902 1.04689075 0 0 0
4579 2 27.280018650001 190.97013357902202 1.04689075 0 0 0
4580 2 32.3950019 188.01701641048902 1.04689075 0 0 0
4581 2 30.690018850001 190.97013357902202 1.04689075 0 0 0
4582 1 27.2800016 192.93893742097802 1.04689075 0 0 0
4583 1 25.574984449999 195.89205458951102 1.04689075 0 0 0
4584 1 23.8700014 198.845201289511 1.04689075 0 0 0
4585 1 22.164984249999 201.798347989511 1.04689075 0 0 0
4586 1 20.459984149999 204.751524220978 1.04689075 0 0 0
4587 1 30.689984749999 192.93893742097802 1.04689075 0 0 0
4588 1 28.984984649999 195.89205458951102 1.04689075 0 0 0
4589 1 27.2800016 198.845201289511 1.04689075 0 0 0
4590 1 25.574984449999 201.798347989511 1.04689075 0 0 0
4591 1 23.8700014 204.751524220978 1.04689075 0 0 0
4592 1 32.394984849999 195.89205458951102 1.04689075 0 0 0
4593 1 30.689984749999 198.845201289511 1.04689075 0 0 0
4594 1 28.984984649999 201.798347989511 1.04689075 0 0 0
4595 1 27.2800016 204.751524220978 1.04689075 0 0 0
4596 1 32.394984849999 201.798347989511 1.04689075 0 0 0
4597 1 30.689984749999 204.751524220978 1.04689075 0 0 0
4598 2 25.5750015 193.923280279022 1.04689075 0 0 0
4599 2 23.8700014 196.87645651048902 1.04689075 0 0 0
4600 2 22.165018350001 199.829603210489 1.04689075 0 0 0
5153 1 1.7050001 207.704670920978 1.04689075 0 0 0
5154 1 0 210.657788089511 1.04689075 0 0 0
5155 1 5.114983249999 207.704670920978 1.04689075 0 0 0
5156 1 3.409983149999 210.657788089511 1.04689075 0 0 0
5157 1 1.7050001 213.610934789511 1.04689075 0 0 0
5158 1 0 216.564111020978 1.04689075 0 0 0
5159 1 8.524983449999 207.704670920978 1.04689075 0 0 0
5160 1 6.8200004 210.657788089511 1.04689075 0 0 0
5161 1 5.114983249999 213.610934789511 1.04689075 0 0 0
5162 1 3.409983149999 216.564111020978 1.04689075 0 0 0
5163 1 1.7050001 219.517228189511 1.04689075 0 0 0
5164 1 11.934983649999 207.704670920978 1.04689075 0 0 0
5165 1 10.2300006 210.657788089511 1.04689075 0 0 0
5166 1 8.524983449999 213.610934789511 1.04689075 0 0 0
5167 1 6.8200004 216.564111020978 1.04689075 0 0 0
5168 1 5.114983249999 219.517228189511 1.04689075 0 0 0
5169 1 15.344983849999 207.704670920978 1.04689075 0 0 0
5170 1 13.639983749999 210.657788089511 1.04689075 0 0 0
5171 1 11.934983649999 213.610934789511 1.04689075 0 0 0
5172 1 10.2300006 216.564111020978 1.04689075 0 0 0
5173 1 8.524983449999 219.517228189511 1.04689075 0 0 0
5174 2 0 208.689043310489 1.04689075 0 0 0
5175 2 3.4100002 208.689043310489 1.04689075 0 0 0
5176 2 1.705017150001 211.642160479022 1.04689075 0 0 0
5177 2 0 214.595307179022 1.04689075 0 0 0
5178 2 6.8200004 208.689043310489 1.04689075 0 0 0
5179 2 5.115017350001 211.642160479022 1.04689075 0 0 0
5180 2 3.4100002 214.595307179022 1.04689075 0 0 0
5181 2 1.705017150001 217.548483410489 1.04689075 0 0 0
5182 2 0 220.501600579022 1.04689075 0 0 0
5183 2 10.230017650001 208.689043310489 1.04689075 0 0 0
5184 2 8.5250005 211.642160479022 1.04689075 0 0 0
5185 2 6.8200004 214.595307179022 1.04689075 0 0 0
5186 2 5.115017350001 217.548483410489 1.04689075 0 0 0
5187 2 3.4100002 220.501600579022 1.04689075 0 0 0
5188 2 13.640017850001 208.689043310489 1.04689075 0 0 0
5189 2 11.935017750001 211.642160479022 1.04689075 0 0 0
5190 2 10.230017650001 214.595307179022 1.04689075 0 0 0
5191 2 8.5250005 217.548483410489 1.04689075 0 0 0
5192 2 6.8200004 220.501600579022 1.04689075 0 0 0
5193 1 0 222.470404420978 1.04689075 0 0 0
5194 1 3.409983149999 222.470404420978 1.04689075 0 0 0
5195 1 1.7050001 225.423521589511 1.04689075 0 0 0
5196 1 0 228.376668289511 1.04689075 0 0 0
5197 1 6.8200004 222.470404420978 1.04689075 0 0 0
5198 1 5.114983249999 225.423521589511 1.04689075 0 0 0
5199 1 3.409983149999 228.376668289511 1.04689075 0 0 0
5200 1 1.7050001 231.329814989511 1.04689075 0 0 0
5201 1 0 234.282991220978 1.04689075 0 0 0
5202 2 1.705017150001 223.454747279022 1.04689075 0 0 0
5203 2 0 226.407923510489 1.04689075 0 0 0
5204 2 5.115017350001 223.454747279022 1.04689075 0 0 0
5205 2 3.4100002 226.407923510489 1.04689075 0 0 0
5206 2 1.705017150001 229.361070210489 1.04689075 0 0 0
5207 2 0 232.314216910489 1.04689075 0 0 0
5208 1 15.344983849999 213.610934789511 1.04689075 0 0 0
5209 1 13.639983749999 216.564111020978 1.04689075 0 0 0
5210 1 11.934983649999 219.517228189511 1.04689075 0 0 0
5211 2 32.3950019 235.267334079022 1.04689075 0 0 0
5212 2 15.3450009 211.642160479022 1.04689075 0 0 0
5213 2 13.640017850001 214.595307179022 1.04689075 0 0 0
5214 2 11.935017750001 217.548483410489 1.04689075 0 0 0
5215 2 10.230017650001 220.501600579022 1.04689075 0 0 0
5216 2 28.985018750001 235.267334079022 1.04689075 0 0 0
5217 2 30.690018850001 232.314216910489 1.04689075 0 0 0
5218 1 10.2300006 222.470404420978 1.04689075 0 0 0
5219 1 8.524983449999 225.423521589511 1.04689075 0 0 0
5220 1 6.8200004 228.376668289511 1.04689075 0 0 0
5221 1 5.114983249999 231.329814989511 1.04689075 0 0 0
5222 1 3.409983149999 234.282991220978 1.04689075 0 0 0
5223 2 32.3950019 229.361070210489 1.04689075 0 0 0
5224 1 11.934983649999 225.423521589511 1.04689075 0 0 0
5225 1 10.2300006 228.376668289511 1.04689075 0 0 0
5226 1 8.524983449999 231.329814989511 1.04689075 0 0 0
5227 1 6.8200004 234.282991220978 1.04689075 0 0 0
5228 2 25.5750015 235.267334079022 1.04689075 0 0 0
5229 1 13.639983749999 228.376668289511 1.04689075 0 0 0
5230 1 11.934983649999 231.329814989511 1.04689075 0 0 0
5231 1 10.2300006 234.282991220978 1.04689075 0 0 0
5232 1 15.344983849999 231.329814989511 1.04689075 0 0 0
5233 1 13.639983749999 234.282991220978 1.04689075 0 0 0
5234 2 8.5250005 223.454747279022 1.04689075 0 0 0
5235 2 6.8200004 226.407923510489 1.04689075 0 0 0
5236 2 5.115017350001 229.361070210489 1.04689075 0 0 0
5237 2 3.4100002 232.314216910489 1.04689075 0 0 0
5238 2 1.705017150001 235.267334079022 1.04689075 0 0 0
5239 2 11.935017750001 223.454747279022 1.04689075 0 0 0
5240 2 10.230017650001 226.407923510489 1.04689075 0 0 0
5241 2 8.5250005 229.361070210489 1.04689075 0 0 0
5242 2 6.8200004 232.314216910489 1.04689075 0 0 0
5243 2 5.115017350001 235.267334079022 1.04689075 0 0 0
5244 2 27.280018650001 232.314216910489 1.04689075 0 0 0
5245 2 13.640017850001 226.407923510489 1.04689075 0 0 0
5246 2 11.935017750001 229.361070210489 1.04689075 0 0 0
5247 2 10.230017650001 232.314216910489 1.04689075 0 0 0
5248 2 8.5250005 235.267334079022 1.04689075 0 0 0
5249 2 15.3450009 229.361070210489 1.04689075 0 0 0
5250 2 13.640017850001 232.314216910489 1.04689075 0 0 0
5251 2 11.935017750001 235.267334079022 1.04689075 0 0 0
5252 2 15.3450009 235.267334079022 1.04689075 0 0 0
5253 1 18.7550011 207.704670920978 1.04689075 0 0 0
5254 1 17.050001 210.657788089511 1.04689075 0 0 0
5255 1 22.164984249999 207.704670920978 1.04689075 0 0 0
5256 1 20.459984149999 210.657788089511 1.04689075 0 0 0
5257 1 18.7550011 213.610934789511 1.04689075 0 0 0
5258 2 28.985018750001 229.361070210489 1.04689075 0 0 0
5259 1 25.574984449999 207.704670920978 1.04689075 0 0 0
5260 1 23.8700014 210.657788089511 1.04689075 0 0 0
5261 1 22.164984249999 213.610934789511 1.04689075 0 0 0
5262 1 20.459984149999 216.564111020978 1.04689075 0 0 0
5263 2 30.690018850001 226.407923510489 1.04689075 0 0 0
5264 1 28.984984649999 207.704670920978 1.04689075 0 0 0
5265 1 27.2800016 210.657788089511 1.04689075 0 0 0
5266 1 25.574984449999 213.610934789511 1.04689075 0 0 0
5267 1 23.8700014 216.564111020978 1.04689075 0 0 0
5268 1 22.164984249999 219.517228189511 1.04689075 0 0 0
5269 1 32.394984849999 207.704670920978 1.04689075 0 0 0
5270 1 30.689984749999 210.657788089511 1.04689075 0 0 0
5271 1 28.984984649999 213.610934789511 1.04689075 0 0 0
5272 1 27.2800016 216.564111020978 1.04689075 0 0 0
5273 1 25.574984449999 219.517228189511 1.04689075 0 0 0
5274 2 17.050001 208.689043310489 1.04689075 0 0 0
5275 2 20.4600012 208.689043310489 1.04689075 0 0 0
5276 2 18.755018150001 211.642160479022 1.04689075 0 0 0
5277 2 17.050001 214.595307179022 1.04689075 0 0 0
5278 2 23.8700014 208.689043310489 1.04689075 0 0 0
5279 2 22.165018350001 211.642160479022 1.04689075 0 0 0
5280 2 20.4600012 214.595307179022 1.04689075 0 0 0
5281 2 32.3950019 223.454747279022 1.04689075 0 0 0
5282 2 22.165018350001 235.267334079022 1.04689075 0 0 0
5283 2 27.280018650001 208.689043310489 1.04689075 0 0 0
5284 2 25.5750015 211.642160479022 1.04689075 0 0 0
5285 2 23.8700014 214.595307179022 1.04689075 0 0 0
5286 2 22.165018350001 217.548483410489 1.04689075 0 0 0
5287 2 23.8700014 232.314216910489 1.04689075 0 0 0
5288 2 30.690018850001 208.689043310489 1.04689075 0 0 0
5289 2 28.985018750001 211.642160479022 1.04689075 0 0 0
5290 2 27.280018650001 214.595307179022 1.04689075 0 0 0
5291 2 25.5750015 217.548483410489 1.04689075 0 0 0
5292 2 23.8700014 220.501600579022 1.04689075 0 0 0
5293 2 25.5750015 229.361070210489 1.04689075 0 0 0
5294 2 27.280018650001 226.407923510489 1.04689075 0 0 0
5295 2 28.985018750001 223.454747279022 1.04689075 0 0 0
5296 1 17.050001 228.376668289511 1.04689075 0 0 0
5297 1 23.8700014 222.470404420978 1.04689075 0 0 0
5298 1 22.164984249999 225.423521589511 1.04689075 0 0 0
5299 1 20.459984149999 228.376668289511 1.04689075 0 0 0
5300 1 18.7550011 231.329814989511 1.04689075 0 0 0
5301 1 17.050001 234.282991220978 1.04689075 0 0 0
5302 2 18.755018150001 235.267334079022 1.04689075 0 0 0
5303 2 20.4600012 232.314216910489 1.04689075 0 0 0
5304 2 22.165018350001 223.454747279022 1.04689075 0 0 0
5305 2 20.4600012 226.407923510489 1.04689075 0 0 0
5306 2 18.755018150001 229.361070210489 1.04689075 0 0 0
5307 2 17.050001 232.314216910489 1.04689075 0 0 0
5308 1 32.394984849999 213.610934789511 1.04689075 0 0 0
5309 1 30.689984749999 216.564111020978 1.04689075 0 0 0
5310 1 28.984984649999 219.517228189511 1.04689075 0 0 0
5311 1 32.394984849999 219.517228189511 1.04689075 0 0 0
5312 2 32.3950019 211.642160479022 1.04689075 0 0 0
5313 2 30.690018850001 214.595307179022 1.04689075 0 0 0
5314 2 28.985018750001 217.548483410489 1.04689075 0 0 0
5315 2 27.280018650001 220.501600579022 1.04689075 0 0 0
5316 2 32.3950019 217.548483410489 1.04689075 0 0 0
5317 2 30.690018850001 220.501600579022 1.04689075 0 0 0
5318 1 27.2800016 222.470404420978 1.04689075 0 0 0
5319 1 25.574984449999 225.423521589511 1.04689075 0 0 0
5320 1 23.8700014 228.376668289511 1.04689075 0 0 0
5321 1 22.164984249999 231.329814989511 1.04689075 0 0 0
5322 1 20.459984149999 234.282991220978 1.04689075 0 0 0
5323 1 30.689984749999 222.470404420978 1.04689075 0 0 0
5324 1 28.984984649999 225.423521589511 1.04689075 0 0 0
5325 1 27.2800016 228.376668289511 1.04689075 0 0 0
5326 1 25.574984449999 231.329814989511 1.04689075 0 0 0
5327 1 23.8700014 234.282991220978 1.04689075 0 0 0
5328 1 32.394984849999 225.423521589511 1.04689075 0 0 0
5329 1 30.689984749999 228.376668289511 1.04689075 0 0 0
5330 1 28.984984649999 231.329814989511 1.04689075 0 0 0
5331 1 27.2800016 234.282991220978 1.04689075 0 0 0
5332 1 32.394984849999 231.329814989511 1.04689075 0 0 0
5333 1 30.689984749999 234.282991220978 1.04689075 0 0 0
5334 2 25.5750015 223.454747279022 1.04689075 0 0 0
5335 2 23.8700014 226.407923510489 1.04689075 0 0 0
5336 2 22.165018350001 229.361070210489 1.04689075 0 0 0
5889 1 1.7050001 237.236137920978 1.04689075 0 0 0
5890 1 0 240.189255089511 1.04689075 0 0 0
5891 1 5.114983249999 237.236137920978 1.04689075 0 0 0
5892 1 3.409983149999 240.189255089511 1.04689075 0 0 0
5893 1 1.7050001 243.14240178951098 1.04689075 0 0 0
5894 1 0 246.095578020978 1.04689075 0 0 0
5895 1 8.524983449999 237.236137920978 1.04689075 0 0 0
5896 1 6.8200004 240.189255089511 1.04689075 0 0 0
5897 1 5.114983249999 243.14240178951098 1.04689075 0 0 0
5898 1 3.409983149999 246.095578020978 1.04689075 0 0 0
5899 1 1.7050001 249.048695189511 1.04689075 0 0 0
5900 1 11.934983649999 237.236137920978 1.04689075 0 0 0
5901 1 10.2300006 240.189255089511 1.04689075 0 0 0
5902 1 8.524983449999 243.14240178951098 1.04689075 0 0 0
5903 1 6.8200004 246.095578020978 1.04689075 0 0 0
5904 1 5.114983249999 249.048695189511 1.04689075 0 0 0
5905 1 15.344983849999 237.236137920978 1.04689075 0 0 0
5906 1 13.639983749999 240.189255089511 1.04689075 0 0 0
5907 1 11.934983649999 243.14240178951098 1.04689075 0 0 0
5908 1 10.2300006 246.095578020978 1.04689075 0 0 0
5909 1 8.524983449999 249.048695189511 1.04689075 0 0 0
5910 2 0 238.220510310489 1.04689075 0 0 0
5911 2 3.4100002 238.220510310489 1.04689075 0 0 0
5912 2 1.705017150001 241.173627479022 1.04689075 0 0 0
5913 2 0 244.126774179022 1.04689075 0 0 0
5914 2 6.8200004 238.220510310489 1.04689075 0 0 0
5915 2 5.115017350001 241.173627479022 1.04689075 0 0 0
5916 2 3.4100002 244.126774179022 1.04689075 0 0 0
5917 2 1.705017150001 247.079950410489 1.04689075 0 0 0
5918 2 0 250.033067579022 1.04689075 0 0 0
5919 2 10.230017650001 238.220510310489 1.04689075 0 0 0
5920 2 8.5250005 241.173627479022 1.04689075 0 0 0
5921 2 6.8200004 244.126774179022 1.04689075 0 0 0
5922 2 5.115017350001 247.079950410489 1.04689075 0 0 0
5923 2 3.4100002 250.033067579022 1.04689075 0 0 0
5924 2 13.640017850001 238.220510310489 1.04689075 0 0 0
5925 2 11.935017750001 241.173627479022 1.04689075 0 0 0
5926 2 10.230017650001 244.126774179022 1.04689075 0 0 0
5927 2 8.5250005 247.079950410489 1.04689075 0 0 0
5928 2 6.8200004 250.033067579022 1.04689075 0 0 0
5929 1 0 252.001871420978 1.04689075 0 0 0
5930 1 3.409983149999 252.001871420978 1.04689075 0 0 0
5931 1 1.7050001 254.954988589511 1.04689075 0 0 0
5932 1 0 257.908135289511 1.04689075 0 0 0
5933 1 6.8200004 252.001871420978 1.04689075 0 0 0
5934 1 5.114983249999 254.954988589511 1.04689075 0 0 0
5935 1 3.409983149999 257.908135289511 1.04689075 0 0 0
5936 1 1.7050001 260.861281989511 1.04689075 0 0 0
5937 1 0 263.814458220978 1.04689075 0 0 0
5938 2 1.705017150001 252.986214279022 1.04689075 0 0 0
5939 2 0 255.939390510489 1.04689075 0 0 0
5940 2 5.115017350001 252.986214279022 1.04689075 0 0 0
5941 2 3.4100002 255.939390510489 1.04689075 0 0 0
5942 2 1.705017150001 258.89253721048897 1.04689075 0 0 0
5943 2 0 261.845683910489 1.04689075 0 0 0
5944 1 15.344983849999 243.14240178951098 1.04689075 0 0 0
5945 1 13.639983749999 246.095578020978 1.04689075 0 0 0
5946 1 11.934983649999 249.048695189511 1.04689075 0 0 0
5947 2 32.3950019 264.798801079022 1.04689075 0 0 0
5948 2 15.3450009 241.173627479022 1.04689075 0 0 0
5949 2 13.640017850001 244.126774179022 1.04689075 0 0 0
5950 2 11.935017750001 247.079950410489 1.04689075 0 0 0
5951 2 10.230017650001 250.033067579022 1.04689075 0 0 0
5952 2 28.985018750001 264.798801079022 1.04689075 0 0 0
5953 2 30.690018850001 261.845683910489 1.04689075 0 0 0
5954 1 10.2300006 252.001871420978 1.04689075 0 0 0
5955 1 8.524983449999 254.954988589511 1.04689075 0 0 0
5956 1 6.8200004 257.908135289511 1.04689075 0 0 0
5957 1 5.114983249999 260.861281989511 1.04689075 0 0 0
5958 1 3.409983149999 263.814458220978 1.04689075 0 0 0
5959 2 32.3950019 258.89253721048897 1.04689075 0 0 0
5960 1 11.934983649999 254.954988589511 1.04689075 0 0 0
5961 1 10.2300006 257.908135289511 1.04689075 0 0 0
5962 1 8.524983449999 260.861281989511 1.04689075 0 0 0
5963 1 6.8200004 263.814458220978 1.04689075 0 0 0
5964 2 25.5750015 264.798801079022 1.04689075 0 0 0
5965 1 13.639983749999 257.908135289511 1.04689075 0 0 0
5966 1 11.934983649999 260.861281989511 1.04689075 0 0 0
5967 1 10.2300006 263.814458220978 1.04689075 0 0 0
5968 1 15.344983849999 260.861281989511 1.04689075 0 0 0
5969 1 13.639983749999 263.814458220978 1.04689075 0 0 0
5970 2 8.5250005 252.986214279022 1.04689075 0 0 0
5971 2 6.8200004 255.939390510489 1.04689075 0 0 0
5972 2 5.115017350001 258.89253721048897 1.04689075 0 0 0
5973 2 3.4100002 261.845683910489 1.04689075 0 0 0
5974 2 1.705017150001 264.798801079022 1.04689075 0 0 0
5975 2 11.935017750001 252.986214279022 1.04689075 0 0 0
5976 2 10.230017650001 255.939390510489 1.04689075 0 0 0
5977 2 8.5250005 258.89253721048897 1.04689075 0 0 0
5978 2 6.8200004 261.845683910489 1.04689075 0 0 0
5979 2 5.115017350001 264.798801079022 1.04689075 0 0 0
5980 2 27.280018650001 261.845683910489 1.04689075 0 0 0
5981 2 13.640017850001 255.939390510489 1.04689075 0 0 0
5982 2 11.935017750001 258.89253721048897 1.04689075 0 0 0
5983 2 10.230017650001 261.845683910489 1.04689075 0 0 0
5984 2 8.5250005 264.798801079022 1.04689075 0 0 0
5985 2 15.3450009 258.89253721048897 1.04689075 0 0 0
5986 2 13.640017850001 261.845683910489 1.04689075 0 0 0
5987 2 11.935017750001 264.798801079022 1.04689075 0 0 0
5988 2 15.3450009 264.798801079022 1.04689075 0 0 0
5989 1 18.7550011 237.236137920978 1.04689075 0 0 0
5990 1 17.050001 240.189255089511 1.04689075 0 0 0
5991 1 22.164984249999 237.236137920978 1.04689075 0 0 0
5992 1 20.459984149999 240.189255089511 1.04689075 0 0 0
5993 1 18.7550011 243.14240178951098 1.04689075 0 0 0
5994 2 28.985018750001 258.89253721048897 1.04689075 0 0 0
5995 1 25.574984449999 237.236137920978 1.04689075 0 0 0
5996 1 23.8700014 240.189255089511 1.04689075 0 0 0
5997 1 22.164984249999 243.14240178951098 1.04689075 0 0 0
5998 1 20.459984149999 246.095578020978 1.04689075 0 0 0
5999 2 30.690018850001 255.939390510489 1.04689075 0 0 0
6000 1 28.984984649999 237.236137920978 1.04689075 0 0 0
6001 1 27.2800016 240.189255089511 1.04689075 0 0 0
6002 1 25.574984449999 243.14240178951098 1.04689075 0 0 0
6003 1 23.8700014 246.095578020978 1.04689075 0 0 0
6004 1 22.164984249999 249.048695189511 1.04689075 0 0 0
6005 1 32.394984849999 237.236137920978 1.04689075 0 0 0
6006 1 30.689984749999 240.189255089511 1.04689075 0 0 0
6007 1 28.984984649999 243.14240178951098 1.04689075 0 0 0
6008 1 27.2800016 246.095578020978 1.04689075 0 0 0
6009 1 25.574984449999 249.048695189511 1.04689075 0 0 0
6010 2 17.050001 238.220510310489 1.04689075 0 0 0
6011 2 20.4600012 238.220510310489 1.04689075 0 0 0
6012 2 18.755018150001 241.173627479022 1.04689075 0 0 0
6013 2 17.050001 244.126774179022 1.04689075 0 0 0
6014 2 23.8700014 238.220510310489 1.04689075 0 0 0
6015 2 22.165018350001 241.173627479022 1.04689075 0 0 0
6016 2 20.4600012 244.126774179022 1.04689075 0 0 0
6017 2 32.3950019 252.986214279022 1.04689075 0 0 0
6018 2 22.165018350001 264.798801079022 1.04689075 0 0 0
6019 2 27.280018650001 238.220510310489 1.04689075 0 0 0
6020 2 25.5750015 241.173627479022 1.04689075 0 0 0
6021 2 23.8700014 244.126774179022 1.04689075 0 0 0
6022 2 22.165018350001 247.079950410489 1.04689075 0 0 0
6023 2 23.8700014 261.845683910489 1.04689075 0 0 0
6024 2 30.690018850001 238.220510310489 1.04689075 0 0 0
6025 2 28.985018750001 241.173627479022 1.04689075 0 0 0
6026 2 27.280018650001 244.126774179022 1.04689075 0 0 0
6027 2 25.5750015 247.079950410489 1.04689075 0 0 0
6028 2 23.8700014 250.033067579022 1.04689075 0 0 0
6029 2 25.5750015 258.89253721048897 1.04689075 0 0 0
6030 2 27.280018650001 255.939390510489 1.04689075 0 0 0
6031 2 28.985018750001 252.986214279022 1.04689075 0 0 0
6032 1 17.050001 257.908135289511 1.04689075 0 0 0
6033 1 23.8700014 252.001871420978 1.04689075 0 0 0
6034 1 22.164984249999 254.954988589511 1.04689075 0 0 0
6035 1 20.459984149999 257.908135289511 1.04689075 0 0 0
6036 1 18.7550011 260.861281989511 1.04689075 0 0 0
6037 1 17.050001 263.814458220978 1.04689075 0 0 0
6038 2 18.755018150001 264.798801079022 1.04689075 0 0 0
6039 2 20.4600012 261.845683910489 1.04689075 0 0 0
6040 2 22.165018350001 252.986214279022 1.04689075 0 0 0
6041 2 20.4600012 255.939390510489 1.04689075 0 0 0
6042 2 18.755018150001 258.89253721048897 1.04689075 0 0 0
6043 2 17.050001 261.845683910489 1.04689075 0 0 0
6044 1 32.394984849999 243.14240178951098 1.04689075 0 0 0
6045 1 30.689984749999 246.095578020978 1.04689075 0 0 0
6046 1 28.984984649999 249.048695189511 1.04689075 0 0 0
6047 1 32.394984849999 249.048695189511 1.04689075 0 0 0
6048 2 32.3950019 241.173627479022 1.04689075 0 0 0
6049 2 30.690018850001 244.126774179022 1.04689075 0 0 0
6050 2 28.985018750001 247.079950410489 1.04689075 0 0 0
6051 2 27.280018650001 250.033067579022 1.04689075 0 0 0
6052 2 32.3950019 247.079950410489 1.04689075 0 0 0
6053 2 30.690018850001 250.033067579022 1.04689075 0 0 0
6054 1 27.2800016 252.001871420978 1.04689075 0 0 0
6055 1 25.574984449999 254.954988589511 1.04689075 0 0 0
6056 1 23.8700014 257.908135289511 1.04689075 0 0 0
6057 1 22.164984249999 260.861281989511 1.04689075 0 0 0
6058 1 20.459984149999 263.814458220978 1.04689075 0 0 0
6059 1 30.689984749999 252.001871420978 1.04689075 0 0 0
6060 1 28.984984649999 254.954988589511 1.04689075 0 0 0
6061 1 27.2800016 257.908135289511 1.04689075 0 0 0
6062 1 25.574984449999 260.861281989511 1.04689075 0 0 0
6063 1 23.8700014 263.814458220978 1.04689075 0 0 0
6064 1 32.394984849999 254.954988589511 1.04689075 0 0 0
6065 1 30.689984749999 257.908135289511 1.04689075 0 0 0
6066 1 28.984984649999 260.861281989511 1.04689075 0 0 0
6067 1 27.2800016 263.814458220978 1.04689075 0 0 0
6068 1 32.394984849999 260.861281989511 1.04689075 0 0 0
6069 1 30.689984749999 263.814458220978 1.04689075 0 0 0
6070 2 25.5750015 252.986214279022 1.04689075 0 0 0
6071 2 23.8700014 255.939390510489 1.04689075 0 0 0
6072 2 22.165018350001 258.89253721048897 1.04689075 0 0 0
6625 1 1.7050001 266.767604920978 1.04689075 0 0 0
6626 1 0 269.720722089511 1.04689075 0 0 0
6627 1 5.114983249999 266.767604920978 1.04689075 0 0 0
6628 1 3.409983149999 269.720722089511 1.04689075 0 0 0
6629 1 1.7050001 272.673868789511 1.04689075 0 0 0
6630 1 0 275.627045020978 1.04689075 0 0 0
6631 1 8.524983449999 266.767604920978 1.04689075 0 0 0
6632 1 6.8200004 269.720722089511 1.04689075 0 0 0
6633 1 5.114983249999 272.673868789511 1.04689075 0 0 0
6634 1 3.409983149999 275.627045020978 1.04689075 0 0 0
6635 1 1.7050001 278.58016218951104 1.04689075 0 0 0
6636 1 11.934983649999 266.767604920978 1.04689075 0 0 0
6637 1 10.2300006 269.720722089511 1.04689075 0 0 0
6638 1 8.524983449999 272.673868789511 1.04689075 0 0 0
6639 1 6.8200004 275.627045020978 1.04689075 0 0 0
6640 1 5.114983249999 278.58016218951104 1.04689075 0 0 0
6641 1 15.344983849999 266.767604920978 1.04689075 0 0 0
6642 1 13.639983749999 269.720722089511 1.04689075 0 0 0
6643 1 11.934983649999 272.673868789511 1.04689075 0 0 0
6644 1 10.2300006 275.627045020978 1.04689075 0 0 0
6645 1 8.524983449999 278.58016218951104 1.04689075 0 0 0
6646 2 0 267.751977310489 1.04689075 0 0 0
6647 2 3.4100002 267.751977310489 1.04689075 0 0 0
6648 2 1.705017150001 270.705094479022 1.04689075 0 0 0
6649 2 0 273.658241179022 1.04689075 0 0 0
6650 2 6.8200004 267.751977310489 1.04689075 0 0 0
6651 2 5.115017350001 270.705094479022 1.04689075 0 0 0
6652 2 3.4100002 273.658241179022 1.04689075 0 0 0
6653 2 1.705017150001 276.611417410489 1.04689075 0 0 0
6654 2 0 279.564534579022 1.04689075 0 0 0
6655 2 10.230017650001 267.751977310489 1.04689075 0 0 0
6656 2 8.5250005 270.705094479022 1.04689075 0 0 0
6657 2 6.8200004 273.658241179022 1.04689075 0 0 0
6658 2 5.115017350001 276.611417410489 1.04689075 0 0 0
6659 2 3.4100002 279.564534579022 1.04689075 0 0 0
6660 2 13.640017850001 267.751977310489 1.04689075 0 0 0
6661 2 11.935017750001 270.705094479022 1.04689075 0 0 0
6662 2 10.230017650001 273.658241179022 1.04689075 0 0 0
6663 2 8.5250005 276.611417410489 1.04689075 0 0 0
6664 2 6.8200004 279.564534579022 1.04689075 0 0 0
6665 1 0 281.533338420978 1.04689075 0 0 0
6666 1 3.409983149999 281.533338420978 1.04689075 0 0 0
6667 1 1.7050001 284.486455589511 1.04689075 0 0 0
6668 1 0 287.439602289511 1.04689075 0 0 0
6669 1 6.8200004 281.533338420978 1.04689075 0 0 0
6670 1 5.114983249999 284.486455589511 1.04689075 0 0 0
6671 1 3.409983149999 287.439602289511 1.04689075 0 0 0
6672 1 1.7050001 290.392748989511 1.04689075 0 0 0
6673 1 0 293.345925220978 1.04689075 0 0 0
6674 2 1.705017150001 282.517681279022 1.04689075 0 0 0
6675 2 0 285.470857510489 1.04689075 0 0 0
6676 2 5.115017350001 282.517681279022 1.04689075 0 0 0
6677 2 3.4100002 285.470857510489 1.04689075 0 0 0
6678 2 1.705017150001 288.424004210489 1.04689075 0 0 0
6679 2 0 291.37715091048904 1.04689075 0 0 0
6680 1 15.344983849999 272.673868789511 1.04689075 0 0 0
6681 1 13.639983749999 275.627045020978 1.04689075 0 0 0
6682 1 11.934983649999 278.58016218951104 1.04689075 0 0 0
6683 2 32.3950019 294.330268079022 1.04689075 0 0 0
6684 2 15.3450009 270.705094479022 1.04689075 0 0 0
6685 2 13.640017850001 273.658241179022 1.04689075 0 0 0
6686 2 11.935017750001 276.611417410489 1.04689075 0 0 0
6687 2 10.230017650001 279.564534579022 1.04689075 0 0 0
6688 2 28.985018750001 294.330268079022 1.04689075 0 0 0
6689 2 30.690018850001 291.37715091048904 1.04689075 0 0 0
6690 1 10.2300006 281.533338420978 1.04689075 0 0 0
6691 1 8.524983449999 284.486455589511 1.04689075 0 0 0
6692 1 6.8200004 287.439602289511 1.04689075 0 0 0
6693 1 5.114983249999 290.392748989511 1.04689075 0 0 0
6694 1 3.409983149999 293.345925220978 1.04689075 0 0 0
6695 2 32.3950019 288.424004210489 1.04689075 0 0 0
6696 1 11.934983649999 284.486455589511 1.04689075 0 0 0
6697 1 10.2300006 287.439602289511 1.04689075 0 0 0
6698 1 8.524983449999 290.392748989511 1.04689075 0 0 0
6699 1 6.8200004 293.345925220978 1.04689075 0 0 0
6700 2 25.5750015 294.330268079022 1.04689075 0 0 0
6701 1 13.639983749999 287.439602289511 1.04689075 0 0 0
6702 1 11.934983649999 290.392748989511 1.04689075 0 0 0
6703 1 10.2300006 293.345925220978 1.04689075 0 0 0
6704 1 15.344983849999 290.392748989511 1.04689075 0 0 0
6705 1 13.639983749999 293.345925220978 1.04689075 0 0 0
6706 2 8.5250005 282.517681279022 1.04689075 0 0 0
6707 2 6.8200004 285.470857510489 1.04689075 0 0 0
6708 2 5.115017350001 288.424004210489 1.04689075 0 0 0
6709 2 3.4100002 291.37715091048904 1.04689075 0 0 0
6710 2 1.705017150001 294.330268079022 1.04689075 0 0 0
6711 2 11.935017750001 282.517681279022 1.04689075 0 0 0
6712 2 10.230017650001 285.470857510489 1.04689075 0 0 0
6713 2 8.5250005 288.424004210489 1.04689075 0 0 0
6714 2 6.8200004 291.37715091048904 1.04689075 0 0 0
6715 2 5.115017350001 294.330268079022 1.04689075 0 0 0
6716 2 27.280018650001 291.37715091048904 1.04689075 0 0 0
6717 2 13.640017850001 285.470857510489 1.04689075 0 0 0
6718 2 11.935017750001 288.424004210489 1.04689075 0 0 0
6719 2 10.230017650001 291.37715091048904 1.04689075 0 0 0
6720 2 8.5250005 294.330268079022 1.04689075 0 0 0
6721 2 15.3450009 288.424004210489 1.04689075 0 0 0
6722 2 13.640017850001 291.37715091048904 1.04689075 0 0 0
6723 2 11.935017750001 294.330268079022 1.04689075 0 0 0
6724 2 15.3450009 294.330268079022 1.04689075 0 0 0
6725 1 18.7550011 266.767604920978 1.04689075 0 0 0
6726 1 17.050001 269.720722089511 1.04689075 0 0 0
6727 1 22.164984249999 266.767604920978 1.04689075 0 0 0
6728 1 20.459984149999 269.720722089511 1.04689075 0 0 0
6729 1 18.7550011 272.673868789511 1.04689075 0 0 0
6730 2 28.985018750001 288.424004210489 1.04689075 0 0 0
6731 1 25.574984449999 266.767604920978 1.04689075 0 0 0
6732 1 23.8700014 269.720722089511 1.04689075 0 0 0
6733 1 22.164984249999 272.673868789511 1.04689075 0 0 0
6734 1 20.459984149999 275.627045020978 1.04689075 0 0 0
6735 2 30.690018850001 285.470857510489 1.04689075 0 0 0
6736 1 28.984984649999 266.767604920978 1.04689075 0 0 0
6737 1 27.2800016 269.720722089511 1.04689075 0 0 0
6738 1 25.574984449999 272.673868789511 1.04689075 0 0 0
6739 1 23.8700014 275.627045020978 1.04689075 0 0 0
6740 1 22.164984249999 278.58016218951104 1.04689075 0 0 0
6741 1 32.394984849999 266.767604920978 1.04689075 0 0 0
6742 1 30.689984749999 269.720722089511 1.04689075 0 0 0
6743 1 28.984984649999 272.673868789511 1.04689075 0 0 0
6744 1 27.2800016 275.627045020978 1.04689075 0 0 0
6745 1 25.574984449999 278.58016218951104 1.04689075 0 0 0
6746 2 17.050001 267.751977310489 1.04689075 0 0 0
6747 2 20.4600012 267.751977310489 1.04689075 0 0 0
6748 2 18.755018150001 270.705094479022 1.04689075 0 0 0
6749 2 17.050001 273.658241179022 1.04689075 0 0 0
6750 2 23.8700014 267.751977310489 1.04689075 0 0 0
6751 2 22.165018350001 270.705094479022 1.04689075 0 0 0
6752 2 20.4600012 273.658241179022 1.04689075 0 0 0
6753 2 32.3950019 282.517681279022 1.04689075 0 0 0
6754 2 22.165018350001 294.330268079022 1.04689075 0 0 0
6755 2 27.280018650001 267.751977310489 1.04689075 0 0 0
6756 2 25.5750015 270.705094479022 1.04689075 0 0 0
6757 2 23.8700014 273.658241179022 1.04689075 0 0 0
6758 2 22.165018350001 276.611417410489 1.04689075 0 0 0
6759 2 23.8700014 291.37715091048904 1.04689075 0 0 0
6760 2 30.690018850001 267.751977310489 1.04689075 0 0 0
6761 2 28.985018750001 270.705094479022 1.04689075 0 0 0
6762 2 27.280018650001 273.658241179022 1.04689075 0 0 0
6763 2 25.5750015 276.611417410489 1.04689075 0 0 0
6764 2 23.8700014 279.564534579022 1.04689075 0 0 0
6765 2 25.5750015 288.424004210489 1.04689075 0 0 0
6766 2 27.280018650001 285.470857510489 1.04689075 0 0 0
6767 2 28.985018750001 282.517681279022 1.04689075 0 0 0
6768 1 17.050001 287.439602289511 1.04689075 0 0 0
6769 1 23.8700014 281.533338420978 1.04689075 0 0 0
6770 1 22.164984249999 284.486455589511 1.04689075 0 0 0
6771 1 20.459984149999 287.439602289511 1.04689075 0 0 0
6772 1 18.7550011 290.392748989511 1.04689075 0 0 0
6773 1 17.050001 293.345925220978 1.04689075 0 0 0
6774 2 18.755018150001 294.330268079022 1.04689075 0 0 0
6775 2 20.4600012 291.37715091048904 1.04689075 0 0 0
6776 2 22.165018350001 282.517681279022 1.04689075 0 0 0
6777 2 20.4600012 285.470857510489 1.04689075 0 0 0
6778 2 18.755018150001 288.424004210489 1.04689075 0 0 0
6779 2 17.050001 291.37715091048904 1.04689075 0 0 0
6780 1 32.394984849999 272.673868789511 1.04689075 0 0 0
6781 1 30.689984749999 275.627045020978 1.04689075 0 0 0
6782 1 28.984984649999 278.58016218951104 1.04689075 0 0 0
6783 1 32.394984849999 278.58016218951104 1.04689075 0 0 0
6784 2 32.3950019 270.705094479022 1.04689075 0 0 0
6785 2 30.690018850001 273.658241179022 1.04689075 0 0 0
6786 2 28.985018750001 276.611417410489 1.04689075 0 0 0
6787 2 27.280018650001 279.564534579022 1.04689075 0 0 0
6788 2 32.3950019 276.611417410489 1.04689075 0 0 0
6789 2 30.690018850001 279.564534579022 1.04689075 0 0 0
6790 1 27.2800016 281.533338420978 1.04689075 0 0 0
6791 1 25.574984449999 284.486455589511 1.04689075 0 0 0
6792 1 23.8700014 287.439602289511 1.04689075 0 0 0
6793 1 22.164984249999 290.392748989511 1.04689075 0 0 0
6794 1 20.459984149999 293.345925220978 1.04689075 0 0 0
6795 1 30.689984749999 281.533338420978 1.04689075 0 0 0
6796 1 28.984984649999 284.486455589511 1.04689075 0 0 0
6797 1 27.2800016 287.439602289511 1.04689075 0 0 0
6798 1 25.574984449999 290.392748989511 1.04689075 0 0 0
6799 1 23.8700014 293.345925220978 1.04689075 0 0 0
6800 1 32.394984849999 284.486455589511 1.04689075 0 0 0
6801 1 30.689984749999 287.439602289511 1.04689075 0 0 0
6802 1 28.984984649999 290.392748989511 1.04689075 0 0 0
6803 1 27.2800016 293.345925220978 1.04689075 0 0 0
6804 1 32.394984849999 290.392748989511 1.04689075 0 0 0
6805 1 30.689984749999 293.345925220978 1.04689075 0 0 0
6806 2 25.5750015 282.517681279022 1.04689075 0 0 0
6807 2 23.8700014 285.470857510489 1.04689075 0 0 0
6808 2 22.165018350001 288.424004210489 1.04689075 0 0 0
7361 1 1.7050001 296.29907192097795 1.04689075 0 0 0
7362 1 0 299.252189089511 1.04689075 0 0 0
7363 1 5.114983249999 296.29907192097795 1.04689075 0 0 0
7364 1 3.409983149999 299.252189089511 1.04689075 0 0 0
7365 1 1.7050001 302.20533578951097 1.04689075 0 0 0
7366 1 0 305.158512020978 1.04689075 0 0 0
7367 1 8.524983449999 296.29907192097795 1.04689075 0 0 0
7368 1 6.8200004 299.252189089511 1.04689075 0 0 0
7369 1 5.114983249999 302.20533578951097 1.04689075 0 0 0
7370 1 3.409983149999 305.158512020978 1.04689075 0 0 0
7371 1 1.7050001 308.11162918951095 1.04689075 0 0 0
7372 1 11.934983649999 296.29907192097795 1.04689075 0 0 0
7373 1 10.2300006 299.252189089511 1.04689075 0 0 0
7374 1 8.524983449999 302.20533578951097 1.04689075 0 0 0
7375 1 6.8200004 305.158512020978 1.04689075 0 0 0
7376 1 5.114983249999 308.11162918951095 1.04689075 0 0 0
7377 1 15.344983849999 296.29907192097795 1.04689075 0 0 0
7378 1 13.639983749999 299.252189089511 1.04689075 0 0 0
7379 1 11.934983649999 302.20533578951097 1.04689075 0 0 0
7380 1 10.2300006 305.158512020978 1.04689075 0 0 0
7381 1 8.524983449999 308.11162918951095 1.04689075 0 0 0
7382 2 0 297.28344431048896 1.04689075 0 0 0
7383 2 3.4100002 297.28344431048896 1.04689075 0 0 0
7384 2 1.705017150001 300.236561479022 1.04689075 0 0 0
7385 2 0 303.189708179022 1.04689075 0 0 0
7386 2 6.8200004 297.28344431048896 1.04689075 0 0 0
7387 2 5.115017350001 300.236561479022 1.04689075 0 0 0
7388 2 3.4100002 303.189708179022 1.04689075 0 0 0
7389 2 1.705017150001 306.142884410489 1.04689075 0 0 0
7390 2 0 309.09600157902196 1.04689075 0 0 0
7391 2 10.230017650001 297.28344431048896 1.04689075 0 0 0
7392 2 8.5250005 300.236561479022 1.04689075 0 0 0
7393 2 6.8200004 303.189708179022 1.04689075 0 0 0
7394 2 5.115017350001 306.142884410489 1.04689075 0 0 0
7395 2 3.4100002 309.09600157902196 1.04689075 0 0 0
7396 2 13.640017850001 297.28344431048896 1.04689075 0 0 0
7397 2 11.935017750001 300.236561479022 1.04689075 0 0 0
7398 2 10.230017650001 303.189708179022 1.04689075 0 0 0
7399 2 8.5250005 306.142884410489 1.04689075 0 0 0
7400 2 6.8200004 309.09600157902196 1.04689075 0 0 0
7401 1 0 311.06480542097796 1.04689075 0 0 0
7402 1 3.409983149999 311.06480542097796 1.04689075 0 0 0
7403 1 1.7050001 314.017922589511 1.04689075 0 0 0
7404 1 0 316.971069289511 1.04689075 0 0 0
7405 1 6.8200004 311.06480542097796 1.04689075 0 0 0
7406 1 5.114983249999 314.017922589511 1.04689075 0 0 0
7407 1 3.409983149999 316.971069289511 1.04689075 0 0 0
7408 1 1.7050001 319.92421598951097 1.04689075 0 0 0
7409 1 0 322.877392220978 1.04689075 0 0 0
7410 2 1.705017150001 312.049148279022 1.04689075 0 0 0
7411 2 0 315.00232451048896 1.04689075 0 0 0
7412 2 5.115017350001 312.049148279022 1.04689075 0 0 0
7413 2 3.4100002 315.00232451048896 1.04689075 0 0 0
7414 2 1.705017150001 317.95547121048895 1.04689075 0 0 0
7415 2 0 320.908617910489 1.04689075 0 0 0
7416 1 15.344983849999 302.20533578951097 1.04689075 0 0 0
7417 1 13.639983749999 305.158512020978 1.04689075 0 0 0
7418 1 11.934983649999 308.11162918951095 1.04689075 0 0 0
7419 2 32.3950019 323.86173507902197 1.04689075 0 0 0
7420 2 15.3450009 300.236561479022 1.04689075 0 0 0
7421 2 13.640017850001 303.189708179022 1.04689075 0 0 0
7422 2 11.935017750001 306.142884410489 1.04689075 0 0 0
7423 2 10.230017650001 309.09600157902196 1.04689075 0 0 0
7424 2 28.985018750001 323.86173507902197 1.04689075 0 0 0
7425 2 30.690018850001 320.908617910489 1.04689075 0 0 0
7426 1 10.2300006 311.06480542097796 1.04689075 0 0 0
7427 1 8.524983449999 314.017922589511 1.04689075 0 0 0
7428 1 6.8200004 316.971069289511 1.04689075 0 0 0
7429 1 5.114983249999 319.92421598951097 1.04689075 0 0 0
7430 1 3.409983149999 322.877392220978 1.04689075 0 0 0
7431 2 32.3950019 317.95547121048895 1.04689075 0 0 0
7432 1 11.934983649999 314.017922589511 1.04689075 0 0 0
7433 1 10.2300006 316.971069289511 1.04689075 0 0 0
7434 1 8.524983449999 319.92421598951097 1.04689075 0 0 0
7435 1 6.8200004 322.877392220978 1.04689075 0 0 0
7436 2 25.5750015 323.86173507902197 1.04689075 0 0 0
7437 1 13.639983749999 316.971069289511 1.04689075 0 0 0
7438 1 11.934983649999 319.92421598951097 1.04689075 0 0 0
7439 1 10.2300006 322.877392220978 1.04689075 0 0 0
7440 1 15.344983849999 319.92421598951097 1.04689075 0 0 0
7441 1 13.639983749999 322.877392220978 1.04689075 0 0 0
7442 2 8.5250005 312.049148279022 1.04689075 0 0 0
7443 2 6.8200004 315.00232451048896 1.04689075 0 0 0
7444 2 5.115017350001 317.95547121048895 1.04689075 0 0 0
7445 2 3.4100002 320.908617910489 1.04689075 0 0 0
7446 2 1.705017150001 323.86173507902197 1.04689075 0 0 0
7447 2 11.935017750001 312.049148279022 1.04689075 0 0 0
7448 2 10.230017650001 315.00232451048896 1.04689075 0 0 0
7449 2 8.5250005 317.95547121048895 1.04689075 0 0 0
7450 2 6.8200004 320.908617910489 1.04689075 0 0 0
7451 2 5.115017350001 323.86173507902197 1.04689075 0 0 0
7452 2 27.280018650001 320.908617910489 1.04689075 0 0 0
7453 2 13.640017850001 315.00232451048896 1.04689075 0 0 0
7454 2 11.935017750001 317.95547121048895 1.04689075 0 0 0
7455 2 10.230017650001 320.908617910489 1.04689075 0 0 0
7456 2 8.5250005 323.86173507902197 1.04689075 0 0 0
7457 2 15.3450009 317.95547121048895 1.04689075 0 0 0
7458 2 13.640017850001 320.908617910489 1.04689075 0 0 0
7459 2 11.935017750001 323.86173507902197 1.04689075 0 0 0
7460 2 15.3450009 323.86173507902197 1.04689075 0 0 0
7461 1 18.7550011 296.29907192097795 1.04689075 0 0 0
7462 1 17.050001 299.252189089511 1.04689075 0 0 0
7463 1 22.164984249999 296.29907192097795 1.04689075 0 0 0
7464 1 20.459984149999 299.252189089511 1.04689075 0 0 0
7465 1 18.7550011 302.20533578951097 1.04689075 0 0 0
7466 2 28.985018750001 317.95547121048895 1.04689075 0 0 0
7467 1 25.574984449999 296.29907192097795 1.04689075 0 0 0
7468 1 23.8700014 299.252189089511 1.04689075 0 0 0
7469 1 22.164984249999 302.20533578951097 1.04689075 0 0 0
7470 1 20.459984149999 305.158512020978 1.04689075 0 0 0
7471 2 30.690018850001 315.00232451048896 1.04689075 0 0 0
7472 1 28.984984649999 296.29907192097795 1.04689075 0 0 0
7473 1 27.2800016 299.252189089511 1.04689075 0 0 0
7474 1 25.574984449999 302.20533578951097 1.04689075 0 0 0
7475 1 23.8700014 305.158512020978 1.04689075 0 0 0
7476 1 22.164984249999 308.11162918951095 1.04689075 0 0 0
7477 1 32.394984849999 296.29907192097795 1.04689075 0 0 0
7478 1 30.689984749999 299.252189089511 1.04689075 0 0 0
7479 1 28.984984649999 302.20533578951097 1.04689075 0 0 0
7480 1 27.2800016 305.158512020978 1.04689075 0 0 0
7481 1 25.574984449999 308.11162918951095 1.04689075 0 0 0
7482 2 17.050001 297.28344431048896 1.04689075 0 0 0
7483 2 20.4600012 297.28344431048896 1.04689075 0 0 0
7484 2 18.755018150001 300.236561479022 1.04689075 0 0 0
7485 2 17.050001 303.189708179022 1.04689075 0 0 0
7486 2 23.8700014 297.28344431048896 1.04689075 0 0 0
7487 2 22.165018350001 300.236561479022 1.04689075 0 0 0
7488 2 20.4600012 303.189708179022 1.04689075 0 0 0
7489 2 32.3950019 312.049148279022 1.04689075 0 0 0
7490 2 22.165018350001 323.86173507902197 1.04689075 0 0 0
7491 2 27.280018650001 297.28344431048896 1.04689075 0 0 0
7492 2 25.5750015 300.236561479022 1.04689075 0 0 0
7493 2 23.8700014 303.189708179022 1.04689075 0 0 0
7494 2 22.165018350001 306.142884410489 1.04689075 0 0 0
7495 2 23.8700014 320.908617910489 1.04689075 0 0 0
7496 2 30.690018850001 297.28344431048896 1.04689075 0 0 0
7497 2 28.985018750001 300.236561479022 1.04689075 0 0 0
7498 2 27.280018650001 303.189708179022 1.04689075 0 0 0
7499 2 25.5750015 306.142884410489 1.04689075 0 0 0
7500 2 23.8700014 309.09600157902196 1.04689075 0 0 0
7501 2 25.5750015 317.95547121048895 1.04689075 0 0 0
7502 2 27.280018650001 315.00232451048896 1.04689075 0 0 0
7503 2 28.985018750001 312.049148279022 1.04689075 0 0 0
7504 1 17.050001 316.971069289511 1.04689075 0 0 0
7505 1 23.8700014 311.06480542097796 1.04689075 0 0 0
7506 1 22.164984249999 314.017922589511 1.04689075 0 0 0
7507 1 20.459984149999 316.971069289511 1.04689075 0 0 0
7508 1 18.7550011 319.92421598951097 1.04689075 0 0 0
7509 1 17.050001 322.877392220978 1.04689075 0 0 0
7510 2 18.755018150001 323.86173507902197 1.04689075 0 0 0
7511 2 20.4600012 320.908617910489 1.04689075 0 0 0
7512 2 22.165018350001 312.049148279022 1.04689075 0 0 0
7513 2 20.4600012 315.00232451048896 1.04689075 0 0 0
7514 2 18.755018150001 317.95547121048895 1.04689075 0 0 0
7515 2 17.050001 320.908617910489 1.04689075 0 0 0
7516 1 32.394984849999 302.20533578951097 1.04689075 0 0 0
7517 1 30.689984749999 305.158512020978 1.04689075 0 0 0
7518 1 28.984984649999 308.11162918951095 1.04689075 0 0 0
7519 1 32.394984849999 308.11162918951095 1.04689075 0 0 0
7520 2 32.3950019 300.236561479022 1.04689075 0 0 0
7521 2 30.690018850001 303.189708179022 1.04689075 0 0 0
7522 2 28.985018750001 306.142884410489 1.04689075 0 0 0
7523 2 27.280018650001 309.09600157902196 1.04689075 0 0 0
7524 2 32.3950019 306.142884410489 1.04689075 0 0 0
7525 2 30.690018850001 309.09600157902196 1.04689075 0 0 0
7526 1 27.2800016 311.06480542097796 1.04689075 0 0 0
7527 1 25.574984449999 314.017922589511 1.04689075 0 0 0
7528 1 23.8700014 316.971069289511 1.04689075 0 0 0
7529 1 22.164984249999 319.92421598951097 1.04689075 0 0 0
7530 1 20.459984149999 322.877392220978 1.04689075 0 0 0
7531 1 30.689984749999 311.06480542097796 1.04689075 0 0 0
7532 1 28.984984649999 314.017922589511 1.04689075 0 0 0
7533 1 27.2800016 316.971069289511 1.04689075 0 0 0
7534 1 25.574984449999 319.92421598951097 1.04689075 0 0 0
7535 1 23.8700014 322.877392220978 1.04689075 0 0 0
7536 1 32.394984849999 314.017922589511 1.04689075 0 0 0
7537 1 30.689984749999 316.971069289511 1.04689075 0 0 0
7538 1 28.984984649999 319.92421598951097 1.04689075 0 0 0
7539 1 27.2800016 322.877392220978 1.04689075 0 0 0
7540 1 32.394984849999 319.92421598951097 1.04689075 0 0 0
7541 1 30.689984749999 322.877392220978 1.04689075 0 0 0
7542 2 25.5750015 312.049148279022 1.04689075 0 0 0
7543 2 23.8700014 315.00232451048896 1.04689075 0 0 0
7544 2 22.165018350001 317.95547121048895 1.04689075 0 0 0
185 1 35.8050021 0.984401920978 1.04689075 0 0 0
186 1 34.100002 3.937519089511 1.04689075 0 0 0
187 1 39.214985249999 0.984401920978 1.04689075 0 0 0
188 1 37.509985149999004 3.937519089511 1.04689075 0 0 0
189 1 35.8050021 6.890665789511 1.04689075 0 0 0
190 1 34.100002 9.843842020978 1.04689075 0 0 0
191 1 42.624985449999 0.984401920978 1.04689075 0 0 0
192 1 40.9200024 3.937519089511 1.04689075 0 0 0
193 1 39.214985249999 6.890665789511 1.04689075 0 0 0
194 1 37.509985149999004 9.843842020978 1.04689075 0 0 0
195 1 35.8050021 12.796959189511 1.04689075 0 0 0
196 1 46.034985649999 0.984401920978 1.04689075 0 0 0
197 1 44.3300026 3.937519089511 1.04689075 0 0 0
198 1 42.624985449999 6.890665789511 1.04689075 0 0 0
199 1 40.9200024 9.843842020978 1.04689075 0 0 0
200 1 39.214985249999 12.796959189511 1.04689075 0 0 0
201 1 49.444985849999 0.984401920978 1.04689075 0 0 0
202 1 47.73998574999901 3.937519089511 1.04689075 0 0 0
203 1 46.034985649999 6.890665789511 1.04689075 0 0 0
204 1 44.3300026 9.843842020978 1.04689075 0 0 0
205 1 42.624985449999 12.796959189511 1.04689075 0 0 0
206 2 34.100002 1.968774310489 1.04689075 0 0 0
207 2 37.5100022 1.968774310489 1.04689075 0 0 0
208 2 35.805019150001 4.921891479022 1.04689075 0 0 0
209 2 34.100002 7.875038179022 1.04689075 0 0 0
210 2 40.9200024 1.968774310489 1.04689075 0 0 0
211 2 39.215019350001 4.921891479022 1.04689075 0 0 0
212 2 37.5100022 7.875038179022 1.04689075 0 0 0
213 2 35.805019150001 10.828214410489 1.04689075 0 0 0
214 2 34.100002 13.781331579022 1.04689075 0 0 0
215 2 44.330019650001006 1.968774310489 1.04689075 0 0 0
216 2 42.62500250000001 4.921891479022 1.04689075 0 0 0
217 2 40.9200024 7.875038179022 1.04689075 0 0 0
218 2 39.215019350001 10.828214410489 1.04689075 0 0 0
219 2 37.5100022 13.781331579022 1.04689075 0 0 0
220 2 47.740019850001005 1.968774310489 1.04689075 0 0 0
221 2 46.035019750001005 4.921891479022 1.04689075 0 0 0
222 2 44.330019650001006 7.875038179022 1.04689075 0 0 0
223 2 42.62500250000001 10.828214410489 1.04689075 0 0 0
224 2 40.9200024 13.781331579022 1.04689075 0 0 0
225 1 34.100002 15.750135420978 1.04689075 0 0 0
226 1 37.509985149999004 15.750135420978 1.04689075 0 0 0
227 1 35.8050021 18.703252589511 1.04689075 0 0 0
228 1 34.100002 21.656399289511 1.04689075 0 0 0
229 1 40.9200024 15.750135420978 1.04689075 0 0 0
230 1 39.214985249999 18.703252589511 1.04689075 0 0 0
231 1 37.509985149999004 21.656399289511 1.04689075 0 0 0
232 1 35.8050021 24.609545989511 1.04689075 0 0 0
233 1 34.100002 27.562722220978 1.04689075 0 0 0
234 2 35.805019150001 16.734478279022 1.04689075 0 0 0
235 2 34.100002 19.687654510489 1.04689075 0 0 0
236 2 39.215019350001 16.734478279022 1.04689075 0 0 0
237 2 37.5100022 19.687654510489 1.04689075 0 0 0
238 2 35.805019150001 22.640801210489 1.04689075 0 0 0
239 2 34.100002 25.593947910489 1.04689075 0 0 0
240 1 49.444985849999 6.890665789511 1.04689075 0 0 0
241 1 47.73998574999901 9.843842020978 1.04689075 0 0 0
242 1 46.034985649999 12.796959189511 1.04689075 0 0 0
243 2 66.4950039 28.547065079022 1.04689075 0 0 0
244 2 49.445002900000006 4.921891479022 1.04689075 0 0 0
245 2 47.740019850001005 7.875038179022 1.04689075 0 0 0
246 2 46.035019750001005 10.828214410489 1.04689075 0 0 0
247 2 44.330019650001006 13.781331579022 1.04689075 0 0 0
248 2 63.08502075000101 28.547065079022 1.04689075 0 0 0
249 2 64.790020850001 25.593947910489 1.04689075 0 0 0
250 1 44.3300026 15.750135420978 1.04689075 0 0 0
251 1 42.624985449999 18.703252589511 1.04689075 0 0 0
252 1 40.9200024 21.656399289511 1.04689075 0 0 0
253 1 39.214985249999 24.609545989511 1.04689075 0 0 0
254 1 37.509985149999004 27.562722220978 1.04689075 0 0 0
255 2 66.4950039 22.640801210489 1.04689075 0 0 0
256 1 46.034985649999 18.703252589511 1.04689075 0 0 0
257 1 44.3300026 21.656399289511 1.04689075 0 0 0
258 1 42.624985449999 24.609545989511 1.04689075 0 0 0
259 1 40.9200024 27.562722220978 1.04689075 0 0 0
260 2 59.6750035 28.547065079022 1.04689075 0 0 0
261 1 47.73998574999901 21.656399289511 1.04689075 0 0 0
262 1 46.034985649999 24.609545989511 1.04689075 0 0 0
263 1 44.3300026 27.562722220978 1.04689075 0 0 0
264 1 49.444985849999 24.609545989511 1.04689075 0 0 0
265 1 47.73998574999901 27.562722220978 1.04689075 0 0 0
266 2 42.62500250000001 16.734478279022 1.04689075 0 0 0
267 2 40.9200024 19.687654510489 1.04689075 0 0 0
268 2 39.215019350001 22.640801210489 1.04689075 0 0 0
269 2 37.5100022 25.593947910489 1.04689075 0 0 0
270 2 35.805019150001 28.547065079022 1.04689075 0 0 0
271 2 46.035019750001005 16.734478279022 1.04689075 0 0 0
272 2 44.330019650001006 19.687654510489 1.04689075 0 0 0
273 2 42.62500250000001 22.640801210489 1.04689075 0 0 0
274 2 40.9200024 25.593947910489 1.04689075 0 0 0
275 2 39.215019350001 28.547065079022 1.04689075 0 0 0
276 2 61.380020650001 25.593947910489 1.04689075 0 0 0
277 2 47.740019850001005 19.687654510489 1.04689075 0 0 0
278 2 46.035019750001005 22.640801210489 1.04689075 0 0 0
279 2 44.330019650001006 25.593947910489 1.04689075 0 0 0
280 2 42.62500250000001 28.547065079022 1.04689075 0 0 0
281 2 49.445002900000006 22.640801210489 1.04689075 0 0 0
282 2 47.740019850001005 25.593947910489 1.04689075 0 0 0
283 2 46.035019750001005 28.547065079022 1.04689075 0 0 0
284 2 49.445002900000006 28.547065079022 1.04689075 0 0 0
285 1 52.855003100000005 0.984401920978 1.04689075 0 0 0
286 1 51.150003000000005 3.937519089511 1.04689075 0 0 0
287 1 56.264986249999005 0.984401920978 1.04689075 0 0 0
288 1 54.559986149999006 3.937519089511 1.04689075 0 0 0
289 1 52.855003100000005 6.890665789511 1.04689075 0 0 0
290 2 63.08502075000101 22.640801210489 1.04689075 0 0 0
291 1 59.674986449999004 0.984401920978 1.04689075 0 0 0
292 1 57.9700034 3.937519089511 1.04689075 0 0 0
293 1 56.264986249999005 6.890665789511 1.04689075 0 0 0
294 1 54.559986149999006 9.843842020978 1.04689075 0 0 0
295 2 64.790020850001 19.687654510489 1.04689075 0 0 0
296 1 63.084986649999 0.984401920978 1.04689075 0 0 0
297 1 61.3800036 3.937519089511 1.04689075 0 0 0
298 1 59.674986449999004 6.890665789511 1.04689075 0 0 0
299 1 57.9700034 9.843842020978 1.04689075 0 0 0
300 1 56.264986249999005 12.796959189511 1.04689075 0 0 0
301 1 66.49498684999901 0.984401920978 1.04689075 0 0 0
302 1 64.789986749999 3.937519089511 1.04689075 0 0 0
303 1 63.084986649999 6.890665789511 1.04689075 0 0 0
304 1 61.3800036 9.843842020978 1.04689075 0 0 0
305 1 59.674986449999004 12.796959189511 1.04689075 0 0 0
306 2 51.150003000000005 1.968774310489 1.04689075 0 0 0
307 2 54.560003200000004 1.968774310489 1.04689075 0 0 0
308 2 52.855020150001 4.921891479022 1.04689075 0 0 0
309 2 51.150003000000005 7.875038179022 1.04689075 0 0 0
310 2 57.9700034 1.968774310489 1.04689075 0 0 0
311 2 56.265020350001 4.921891479022 1.04689075 0 0 0
312 2 54.560003200000004 7.875038179022 1.04689075 0 0 0
313 2 66.4950039 16.734478279022 1.04689075 0 0 0
314 2 56.265020350001 28.547065079022 1.04689075 0 0 0
315 2 61.380020650001 1.968774310489 1.04689075 0 0 0
316 2 59.6750035 4.921891479022 1.04689075 0 0 0
317 2 57.9700034 7.875038179022 1.04689075 0 0 0
318 2 56.265020350001 10.828214410489 1.04689075 0 0 0
319 2 57.9700034 25.593947910489 1.04689075 0 0 0
320 2 64.790020850001 1.968774310489 1.04689075 0 0 0
321 2 63.08502075000101 4.921891479022 1.04689075 0 0 0
322 2 61.380020650001 7.875038179022 1.04689075 0 0 0
323 2 59.6750035 10.828214410489 1.04689075 0 0 0
324 2 57.9700034 13.781331579022 1.04689075 0 0 0
325 2 59.6750035 22.640801210489 1.04689075 0 0 0
326 2 61.380020650001 19.687654510489 1.04689075 0 0 0
327 2 63.08502075000101 16.734478279022 1.04689075 0 0 0
328 1 51.150003000000005 21.656399289511 1.04689075 0 0 0
329 1 57.9700034 15.750135420978 1.04689075 0 0 0
330 1 56.264986249999005 18.703252589511 1.04689075 0 0 0
331 1 54.559986149999006 21.656399289511 1.04689075 0 0 0
332 1 52.855003100000005 24.609545989511 1.04689075 0 0 0
333 1 51.150003000000005 27.562722220978 1.04689075 0 0 0
334 2 52.855020150001 28.547065079022 1.04689075 0 0 0
335 2 54.560003200000004 25.593947910489 1.04689075 0 0 0
336 2 56.265020350001 16.734478279022 1.04689075 0 0 0
337 2 54.560003200000004 19.687654510489 1.04689075 0 0 0
338 2 52.855020150001 22.640801210489 1.04689075 0 0 0
339 2 51.150003000000005 25.593947910489 1.04689075 0 0 0
340 1 66.49498684999901 6.890665789511 1.04689075 0 0 0
341 1 64.789986749999 9.843842020978 1.04689075 0 0 0
342 1 63.084986649999 12.796959189511 1.04689075 0 0 0
343 1 66.49498684999901 12.796959189511 1.04689075 0 0 0
344 2 66.4950039 4.921891479022 1.04689075 0 0 0
345 2 64.790020850001 7.875038179022 1.04689075 0 0 0
346 2 63.08502075000101 10.828214410489 1.04689075 0 0 0
347 2 61.380020650001 13.781331579022 1.04689075 0 0 0
348 2 66.4950039 10.828214410489 1.04689075 0 0 0
349 2 64.790020850001 13.781331579022 1.04689075 0 0 0
350 1 61.3800036 15.750135420978 1.04689075 0 0 0
351 1 59.674986449999004 18.703252589511 1.04689075 0 0 0
352 1 57.9700034 21.656399289511 1.04689075 0 0 0
353 1 56.264986249999005 24.609545989511 1.04689075 0 0 0
354 1 54.559986149999006 27.562722220978 1.04689075 0 0 0
355 1 64.789986749999 15.750135420978 1.04689075 0 0 0
356 1 63.084986649999 18.703252589511 1.04689075 0 0 0
357 1 61.3800036 21.656399289511 1.04689075 0 0 0
358 1 59.674986449999004 24.609545989511 1.04689075 0 0 0
359 1 57.9700034 27.562722220978 1.04689075 0 0 0
360 1 66.49498684999901 18.703252589511 1.04689075 0 0 0
361 1 64.789986749999 21.656399289511 1.04689075 0 0 0
362 1 63.084986649999 24.609545989511 1.04689075 0 0 0
363 1 61.3800036 27.562722220978 1.04689075 0 0 0
364 1 66.49498684999901 24.609545989511 1.04689075 0 0 0
365 1 64.789986749999 27.562722220978 1.04689075 0 0 0
366 2 59.6750035 16.734478279022 1.04689075 0 0 0
367 2 57.9700034 19.687654510489 1.04689075 0 0 0
368 2 56.265020350001 22.640801210489 1.04689075 0 0 0
921 1 35.8050021 30.515868920978 1.04689075 0 0 0
922 1 34.100002 33.468986089511 1.04689075 0 0 0
923 1 39.214985249999 30.515868920978 1.04689075 0 0 0
924 1 37.509985149999004 33.468986089511 1.04689075 0 0 0
925 1 35.8050021 36.422132789511 1.04689075 0 0 0
926 1 34.100002 39.375309020978 1.04689075 0 0 0
927 1 42.624985449999 30.515868920978 1.04689075 0 0 0
928 1 40.9200024 33.468986089511 1.04689075 0 0 0
929 1 39.214985249999 36.422132789511 1.04689075 0 0 0
930 1 37.509985149999004 39.375309020978 1.04689075 0 0 0
931 1 35.8050021 42.328426189511 1.04689075 0 0 0
932 1 46.034985649999 30.515868920978 1.04689075 0 0 0
933 1 44.3300026 33.468986089511 1.04689075 0 0 0
934 1 42.624985449999 36.422132789511 1.04689075 0 0 0
935 1 40.9200024 39.375309020978 1.04689075 0 0 0
936 1 39.214985249999 42.328426189511 1.04689075 0 0 0
937 1 49.444985849999 30.515868920978 1.04689075 0 0 0
938 1 47.73998574999901 33.468986089511 1.04689075 0 0 0
939 1 46.034985649999 36.422132789511 1.04689075 0 0 0
940 1 44.3300026 39.375309020978 1.04689075 0 0 0
941 1 42.624985449999 42.328426189511 1.04689075 0 0 0
942 2 34.100002 31.500241310489 1.04689075 0 0 0
943 2 37.5100022 31.500241310489 1.04689075 0 0 0
944 2 35.805019150001 34.453358479022 1.04689075 0 0 0
945 2 34.100002 37.406505179022 1.04689075 0 0 0
946 2 40.9200024 31.500241310489 1.04689075 0 0 0
947 2 39.215019350001 34.453358479022 1.04689075 0 0 0
948 2 37.5100022 37.406505179022 1.04689075 0 0 0
949 2 35.805019150001 40.359681410489 1.04689075 0 0 0
950 2 34.100002 43.312798579022 1.04689075 0 0 0
951 2 44.330019650001006 31.500241310489 1.04689075 0 0 0
952 2 42.62500250000001 34.453358479022 1.04689075 0 0 0
953 2 40.9200024 37.406505179022 1.04689075 0 0 0
954 2 39.215019350001 40.359681410489 1.04689075 0 0 0
955 2 37.5100022 43.312798579022 1.04689075 0 0 0
956 2 47.740019850001005 31.500241310489 1.04689075 0 0 0
957 2 46.035019750001005 34.453358479022 1.04689075 0 0 0
958 2 44.330019650001006 37.406505179022 1.04689075 0 0 0
959 2 42.62500250000001 40.359681410489 1.04689075 0 0 0
960 2 40.9200024 43.312798579022 1.04689075 0 0 0
961 1 34.100002 45.281602420978 1.04689075 0 0 0
962 1 37.509985149999004 45.281602420978 1.04689075 0 0 0
963 1 35.8050021 48.234719589511 1.04689075 0 0 0
964 1 34.100002 51.187866289511 1.04689075 0 0 0
965 1 40.9200024 45.281602420978 1.04689075 0 0 0
966 1 39.214985249999 48.234719589511 1.04689075 0 0 0
967 1 37.509985149999004 51.187866289511 1.04689075 0 0 0
968 1 35.8050021 54.141012989511 1.04689075 0 0 0
969 1 34.100002 57.094189220977995 1.04689075 0 0 0
970 2 35.805019150001 46.265945279022 1.04689075 0 0 0
971 2 34.100002 49.219121510489 1.04689075 0 0 0
972 2 39.215019350001 46.265945279022 1.04689075 0 0 0
973 2 37.5100022 49.219121510489 1.04689075 0 0 0
974 2 35.805019150001 52.172268210488994 1.04689075 0 0 0
975 2 34.100002 55.125414910489 1.04689075 0 0 0
976 1 49.444985849999 36.422132789511 1.04689075 0 0 0
977 1 47.73998574999901 39.375309020978 1.04689075 0 0 0
978 1 46.034985649999 42.328426189511 1.04689075 0 0 0
979 2 66.4950039 58.078532079022 1.04689075 0 0 0
980 2 49.445002900000006 34.453358479022 1.04689075 0 0 0
981 2 47.740019850001005 37.406505179022 1.04689075 0 0 0
982 2 46.035019750001005 40.359681410489 1.04689075 0 0 0
983 2 44.330019650001006 43.312798579022 1.04689075 0 0 0
984 2 63.08502075000101 58.078532079022 1.04689075 0 0 0
985 2 64.790020850001 55.125414910489 1.04689075 0 0 0
986 1 44.3300026 45.281602420978 1.04689075 0 0 0
987 1 42.624985449999 48.234719589511 1.04689075 0 0 0
988 1 40.9200024 51.187866289511 1.04689075 0 0 0
989 1 39.214985249999 54.141012989511 1.04689075 0 0 0
990 1 37.509985149999004 57.094189220977995 1.04689075 0 0 0
991 2 66.4950039 52.172268210488994 1.04689075 0 0 0
992 1 46.034985649999 48.234719589511 1.04689075 0 0 0
993 1 44.3300026 51.187866289511 1.04689075 0 0 0
994 1 42.624985449999 54.141012989511 1.04689075 0 0 0
995 1 40.9200024 57.094189220977995 1.04689075 0 0 0
996 2 59.6750035 58.078532079022 1.04689075 0 0 0
997 1 47.73998574999901 51.187866289511 1.04689075 0 0 0
998 1 46.034985649999 54.141012989511 1.04689075 0 0 0
999 1 44.3300026 57.094189220977995 1.04689075 0 0 0
1000 1 49.444985849999 54.141012989511 1.04689075 0 0 0
1001 1 47.73998574999901 57.094189220977995 1.04689075 0 0 0
1002 2 42.62500250000001 46.265945279022 1.04689075 0 0 0
1003 2 40.9200024 49.219121510489 1.04689075 0 0 0
1004 2 39.215019350001 52.172268210488994 1.04689075 0 0 0
1005 2 37.5100022 55.125414910489 1.04689075 0 0 0
1006 2 35.805019150001 58.078532079022 1.04689075 0 0 0
1007 2 46.035019750001005 46.265945279022 1.04689075 0 0 0
1008 2 44.330019650001006 49.219121510489 1.04689075 0 0 0
1009 2 42.62500250000001 52.172268210488994 1.04689075 0 0 0
1010 2 40.9200024 55.125414910489 1.04689075 0 0 0
1011 2 39.215019350001 58.078532079022 1.04689075 0 0 0
1012 2 61.380020650001 55.125414910489 1.04689075 0 0 0
1013 2 47.740019850001005 49.219121510489 1.04689075 0 0 0
1014 2 46.035019750001005 52.172268210488994 1.04689075 0 0 0
1015 2 44.330019650001006 55.125414910489 1.04689075 0 0 0
1016 2 42.62500250000001 58.078532079022 1.04689075 0 0 0
1017 2 49.445002900000006 52.172268210488994 1.04689075 0 0 0
1018 2 47.740019850001005 55.125414910489 1.04689075 0 0 0
1019 2 46.035019750001005 58.078532079022 1.04689075 0 0 0
1020 2 49.445002900000006 58.078532079022 1.04689075 0 0 0
1021 1 52.855003100000005 30.515868920978 1.04689075 0 0 0
1022 1 51.150003000000005 33.468986089511 1.04689075 0 0 0
1023 1 56.264986249999005 30.515868920978 1.04689075 0 0 0
1024 1 54.559986149999006 33.468986089511 1.04689075 0 0 0
1025 1 52.855003100000005 36.422132789511 1.04689075 0 0 0
1026 2 63.08502075000101 52.172268210488994 1.04689075 0 0 0
1027 1 59.674986449999004 30.515868920978 1.04689075 0 0 0
1028 1 57.9700034 33.468986089511 1.04689075 0 0 0
1029 1 56.264986249999005 36.422132789511 1.04689075 0 0 0
1030 1 54.559986149999006 39.375309020978 1.04689075 0 0 0
1031 2 64.790020850001 49.219121510489 1.04689075 0 0 0
1032 1 63.084986649999 30.515868920978 1.04689075 0 0 0
1033 1 61.3800036 33.468986089511 1.04689075 0 0 0
1034 1 59.674986449999004 36.422132789511 1.04689075 0 0 0
1035 1 57.9700034 39.375309020978 1.04689075 0 0 0
1036 1 56.264986249999005 42.328426189511 1.04689075 0 0 0
1037 1 66.49498684999901 30.515868920978 1.04689075 0 0 0
1038 1 64.789986749999 33.468986089511 1.04689075 0 0 0
1039 1 63.084986649999 36.422132789511 1.04689075 0 0 0
1040 1 61.3800036 39.375309020978 1.04689075 0 0 0
1041 1 59.674986449999004 42.328426189511 1.04689075 0 0 0
1042 2 51.150003000000005 31.500241310489 1.04689075 0 0 0
1043 2 54.560003200000004 31.500241310489 1.04689075 0 0 0
1044 2 52.855020150001 34.453358479022 1.04689075 0 0 0
1045 2 51.150003000000005 37.406505179022 1.04689075 0 0 0
1046 2 57.9700034 31.500241310489 1.04689075 0 0 0
1047 2 56.265020350001 34.453358479022 1.04689075 0 0 0
1048 2 54.560003200000004 37.406505179022 1.04689075 0 0 0
1049 2 66.4950039 46.265945279022 1.04689075 0 0 0
1050 2 56.265020350001 58.078532079022 1.04689075 0 0 0
1051 2 61.380020650001 31.500241310489 1.04689075 0 0 0
1052 2 59.6750035 34.453358479022 1.04689075 0 0 0
1053 2 57.9700034 37.406505179022 1.04689075 0 0 0
1054 2 56.265020350001 40.359681410489 1.04689075 0 0 0
1055 2 57.9700034 55.125414910489 1.04689075 0 0 0
1056 2 64.790020850001 31.500241310489 1.04689075 0 0 0
1057 2 63.08502075000101 34.453358479022 1.04689075 0 0 0
1058 2 61.380020650001 37.406505179022 1.04689075 0 0 0
1059 2 59.6750035 40.359681410489 1.04689075 0 0 0
1060 2 57.9700034 43.312798579022 1.04689075 0 0 0
1061 2 59.6750035 52.172268210488994 1.04689075 0 0 0
1062 2 61.380020650001 49.219121510489 1.04689075 0 0 0
1063 2 63.08502075000101 46.265945279022 1.04689075 0 0 0
1064 1 51.150003000000005 51.187866289511 1.04689075 0 0 0
1065 1 57.9700034 45.281602420978 1.04689075 0 0 0
1066 1 56.264986249999005 48.234719589511 1.04689075 0 0 0
1067 1 54.559986149999006 51.187866289511 1.04689075 0 0 0
1068 1 52.855003100000005 54.141012989511 1.04689075 0 0 0
1069 1 51.150003000000005 57.094189220977995 1.04689075 0 0 0
1070 2 52.855020150001 58.078532079022 1.04689075 0 0 0
1071 2 54.560003200000004 55.125414910489 1.04689075 0 0 0
1072 2 56.265020350001 46.265945279022 1.04689075 0 0 0
1073 2 54.560003200000004 49.219121510489 1.04689075 0 0 0
1074 2 52.855020150001 52.172268210488994 1.04689075 0 0 0
1075 2 51.150003000000005 55.125414910489 1.04689075 0 0 0
1076 1 66.49498684999901 36.422132789511 1.04689075 0 0 0
1077 1 64.789986749999 39.375309020978 1.04689075 0 0 0
1078 1 63.084986649999 42.328426189511 1.04689075 0 0 0
1079 1 66.49498684999901 42.328426189511 1.04689075 0 0 0
1080 2 66.4950039 34.453358479022 1.04689075 0 0 0
1081 2 64.790020850001 37.406505179022 1.04689075 0 0 0
1082 2 63.08502075000101 40.359681410489 1.04689075 0 0 0
1083 2 61.380020650001 43.312798579022 1.04689075 0 0 0
1084 2 66.4950039 40.359681410489 1.04689075 0 0 0
1085 2 64.790020850001 43.312798579022 1.04689075 0 0 0
1086 1 61.3800036 45.281602420978 1.04689075 0 0 0
1087 1 59.674986449999004 48.234719589511 1.04689075 0 0 0
1088 1 57.9700034 51.187866289511 1.04689075 0 0 0
1089 1 56.264986249999005 54.141012989511 1.04689075 0 0 0
1090 1 54.559986149999006 57.094189220977995 1.04689075 0 0 0
1091 1 64.789986749999 45.281602420978 1.04689075 0 0 0
1092 1 63.084986649999 48.234719589511 1.04689075 0 0 0
1093 1 61.3800036 51.187866289511 1.04689075 0 0 0
1094 1 59.674986449999004 54.141012989511 1.04689075 0 0 0
1095 1 57.9700034 57.094189220977995 1.04689075 0 0 0
1096 1 66.49498684999901 48.234719589511 1.04689075 0 0 0
1097 1 64.789986749999 51.187866289511 1.04689075 0 0 0
1098 1 63.084986649999 54.141012989511 1.04689075 0 0 0
1099 1 61.3800036 57.094189220977995 1.04689075 0 0 0
1100 1 66.49498684999901 54.141012989511 1.04689075 0 0 0
1101 1 64.789986749999 57.094189220977995 1.04689075 0 0 0
1102 2 59.6750035 46.265945279022 1.04689075 0 0 0
1103 2 57.9700034 49.219121510489 1.04689075 0 0 0
1104 2 56.265020350001 52.172268210488994 1.04689075 0 0 0
1657 1 35.8050021 60.047335920978 1.04689075 0 0 0
1658 1 34.100002 63.000453089511 1.04689075 0 0 0
1659 1 39.214985249999 60.047335920978 1.04689075 0 0 0
1660 1 37.509985149999004 63.000453089511 1.04689075 0 0 0
1661 1 35.8050021 65.953599789511 1.04689075 0 0 0
1662 1 34.100002 68.906776020978 1.04689075 0 0 0
1663 1 42.624985449999 60.047335920978 1.04689075 0 0 0
1664 1 40.9200024 63.000453089511 1.04689075 0 0 0
1665 1 39.214985249999 65.953599789511 1.04689075 0 0 0
1666 1 37.509985149999004 68.906776020978 1.04689075 0 0 0
1667 1 35.8050021 71.859893189511 1.04689075 0 0 0
1668 1 46.034985649999 60.047335920978 1.04689075 0 0 0
1669 1 44.3300026 63.000453089511 1.04689075 0 0 0
1670 1 42.624985449999 65.953599789511 1.04689075 0 0 0
1671 1 40.9200024 68.906776020978 1.04689075 0 0 0
1672 1 39.214985249999 71.859893189511 1.04689075 0 0 0
1673 1 49.444985849999 60.047335920978 1.04689075 0 0 0
1674 1 47.73998574999901 63.000453089511 1.04689075 0 0 0
1675 1 46.034985649999 65.953599789511 1.04689075 0 0 0
1676 1 44.3300026 68.906776020978 1.04689075 0 0 0
1677 1 42.624985449999 71.859893189511 1.04689075 0 0 0
1678 2 34.100002 61.031708310489 1.04689075 0 0 0
1679 2 37.5100022 61.031708310489 1.04689075 0 0 0
1680 2 35.805019150001 63.984825479022 1.04689075 0 0 0
1681 2 34.100002 66.937972179022 1.04689075 0 0 0
1682 2 40.9200024 61.031708310489 1.04689075 0 0 0
1683 2 39.215019350001 63.984825479022 1.04689075 0 0 0
1684 2 37.5100022 66.937972179022 1.04689075 0 0 0
1685 2 35.805019150001 69.891148410489 1.04689075 0 0 0
1686 2 34.100002 72.844265579022 1.04689075 0 0 0
1687 2 44.330019650001006 61.031708310489 1.04689075 0 0 0
1688 2 42.62500250000001 63.984825479022 1.04689075 0 0 0
1689 2 40.9200024 66.937972179022 1.04689075 0 0 0
1690 2 39.215019350001 69.891148410489 1.04689075 0 0 0
1691 2 37.5100022 72.844265579022 1.04689075 0 0 0
1692 2 47.740019850001005 61.031708310489 1.04689075 0 0 0
1693 2 46.035019750001005 63.984825479022 1.04689075 0 0 0
1694 2 44.330019650001006 66.937972179022 1.04689075 0 0 0
1695 2 42.62500250000001 69.891148410489 1.04689075 0 0 0
1696 2 40.9200024 72.844265579022 1.04689075 0 0 0
1697 1 34.100002 74.813069420978 1.04689075 0 0 0
1698 1 37.509985149999004 74.813069420978 1.04689075 0 0 0
1699 1 35.8050021 77.766186589511 1.04689075 0 0 0
1700 1 34.100002 80.719333289511 1.04689075 0 0 0
1701 1 40.9200024 74.813069420978 1.04689075 0 0 0
1702 1 39.214985249999 77.766186589511 1.04689075 0 0 0
1703 1 37.509985149999004 80.719333289511 1.04689075 0 0 0
1704 1 35.8050021 83.672479989511 1.04689075 0 0 0
1705 1 34.100002 86.625656220978 1.04689075 0 0 0
1706 2 35.805019150001 75.797412279022 1.04689075 0 0 0
1707 2 34.100002 78.750588510489 1.04689075 0 0 0
1708 2 39.215019350001 75.797412279022 1.04689075 0 0 0
1709 2 37.5100022 78.750588510489 1.04689075 0 0 0
1710 2 35.805019150001 81.703735210489 1.04689075 0 0 0
1711 2 34.100002 84.656881910489 1.04689075 0 0 0
1712 1 49.444985849999 65.953599789511 1.04689075 0 0 0
1713 1 47.73998574999901 68.906776020978 1.04689075 0 0 0
1714 1 46.034985649999 71.859893189511 1.04689075 0 0 0
1715 2 66.4950039 87.609999079022 1.04689075 0 0 0
1716 2 49.445002900000006 63.984825479022 1.04689075 0 0 0
1717 2 47.740019850001005 66.937972179022 1.04689075 0 0 0
1718 2 46.035019750001005 69.891148410489 1.04689075 0 0 0
1719 2 44.330019650001006 72.844265579022 1.04689075 0 0 0
1720 2 63.08502075000101 87.609999079022 1.04689075 0 0 0
1721 2 64.790020850001 84.656881910489 1.04689075 0 0 0
1722 1 44.3300026 74.813069420978 1.04689075 0 0 0
1723 1 42.624985449999 77.766186589511 1.04689075 0 0 0
1724 1 40.9200024 80.719333289511 1.04689075 0 0 0
1725 1 39.214985249999 83.672479989511 1.04689075 0 0 0
1726 1 37.509985149999004 86.625656220978 1.04689075 0 0 0
1727 2 66.4950039 81.703735210489 1.04689075 0 0 0
1728 1 46.034985649999 77.766186589511 1.04689075 0 0 0
1729 1 44.3300026 80.719333289511 1.04689075 0 0 0
1730 1 42.624985449999 83.672479989511 1.04689075 0 0 0
1731 1 40.9200024 86.625656220978 1.04689075 0 0 0
1732 2 59.6750035 87.609999079022 1.04689075 0 0 0
1733 1 47.73998574999901 80.719333289511 1.04689075 0 0 0
1734 1 46.034985649999 83.672479989511 1.04689075 0 0 0
1735 1 44.3300026 86.625656220978 1.04689075 0 0 0
1736 1 49.444985849999 83.672479989511 1.04689075 0 0 0
1737 1 47.73998574999901 86.625656220978 1.04689075 0 0 0
1738 2 42.62500250000001 75.797412279022 1.04689075 0 0 0
1739 2 40.9200024 78.750588510489 1.04689075 0 0 0
1740 2 39.215019350001 81.703735210489 1.04689075 0 0 0
1741 2 37.5100022 84.656881910489 1.04689075 0 0 0
1742 2 35.805019150001 87.609999079022 1.04689075 0 0 0
1743 2 46.035019750001005 75.797412279022 1.04689075 0 0 0
1744 2 44.330019650001006 78.750588510489 1.04689075 0 0 0
1745 2 42.62500250000001 81.703735210489 1.04689075 0 0 0
1746 2 40.9200024 84.656881910489 1.04689075 0 0 0
1747 2 39.215019350001 87.609999079022 1.04689075 0 0 0
1748 2 61.380020650001 84.656881910489 1.04689075 0 0 0
1749 2 47.740019850001005 78.750588510489 1.04689075 0 0 0
1750 2 46.035019750001005 81.703735210489 1.04689075 0 0 0
1751 2 44.330019650001006 84.656881910489 1.04689075 0 0 0
1752 2 42.62500250000001 87.609999079022 1.04689075 0 0 0
1753 2 49.445002900000006 81.703735210489 1.04689075 0 0 0
1754 2 47.740019850001005 84.656881910489 1.04689075 0 0 0
1755 2 46.035019750001005 87.609999079022 1.04689075 0 0 0
1756 2 49.445002900000006 87.609999079022 1.04689075 0 0 0
1757 1 52.855003100000005 60.047335920978 1.04689075 0 0 0
1758 1 51.150003000000005 63.000453089511 1.04689075 0 0 0
1759 1 56.264986249999005 60.047335920978 1.04689075 0 0 0
1760 1 54.559986149999006 63.000453089511 1.04689075 0 0 0
1761 1 52.855003100000005 65.953599789511 1.04689075 0 0 0
1762 2 63.08502075000101 81.703735210489 1.04689075 0 0 0
1763 1 59.674986449999004 60.047335920978 1.04689075 0 0 0
1764 1 57.9700034 63.000453089511 1.04689075 0 0 0
1765 1 56.264986249999005 65.953599789511 1.04689075 0 0 0
1766 1 54.559986149999006 68.906776020978 1.04689075 0 0 0
1767 2 64.790020850001 78.750588510489 1.04689075 0 0 0
1768 1 63.084986649999 60.047335920978 1.04689075 0 0 0
1769 1 61.3800036 63.000453089511 1.04689075 0 0 0
1770 1 59.674986449999004 65.953599789511 1.04689075 0 0 0
1771 1 57.9700034 68.906776020978 1.04689075 0 0 0
1772 1 56.264986249999005 71.859893189511 1.04689075 0 0 0
1773 1 66.49498684999901 60.047335920978 1.04689075 0 0 0
1774 1 64.789986749999 63.000453089511 1.04689075 0 0 0
1775 1 63.084986649999 65.953599789511 1.04689075 0 0 0
1776 1 61.3800036 68.906776020978 1.04689075 0 0 0
1777 1 59.674986449999004 71.859893189511 1.04689075 0 0 0
1778 2 51.150003000000005 61.031708310489 1.04689075 0 0 0
1779 2 54.560003200000004 61.031708310489 1.04689075 0 0 0
1780 2 52.855020150001 63.984825479022 1.04689075 0 0 0
1781 2 51.150003000000005 66.937972179022 1.04689075 0 0 0
1782 2 57.9700034 61.031708310489 1.04689075 0 0 0
1783 2 56.265020350001 63.984825479022 1.04689075 0 0 0
1784 2 54.560003200000004 66.937972179022 1.04689075 0 0 0
1785 2 66.4950039 75.797412279022 1.04689075 0 0 0
1786 2 56.265020350001 87.609999079022 1.04689075 0 0 0
1787 2 61.380020650001 61.031708310489 1.04689075 0 0 0
1788 2 59.6750035 63.984825479022 1.04689075 0 0 0
1789 2 57.9700034 66.937972179022 1.04689075 0 0 0
1790 2 56.265020350001 69.891148410489 1.04689075 0 0 0
1791 2 57.9700034 84.656881910489 1.04689075 0 0 0
1792 2 64.790020850001 61.031708310489 1.04689075 0 0 0
1793 2 63.08502075000101 63.984825479022 1.04689075 0 0 0
1794 2 61.380020650001 66.937972179022 1.04689075 0 0 0
1795 2 59.6750035 69.891148410489 1.04689075 0 0 0
1796 2 57.9700034 72.844265579022 1.04689075 0 0 0
1797 2 59.6750035 81.703735210489 1.04689075 0 0 0
1798 2 61.380020650001 78.750588510489 1.04689075 0 0 0
1799 2 63.08502075000101 75.797412279022 1.04689075 0 0 0
1800 1 51.150003000000005 80.719333289511 1.04689075 0 0 0
1801 1 57.9700034 74.813069420978 1.04689075 0 0 0
1802 1 56.264986249999005 77.766186589511 1.04689075 0 0 0
1803 1 54.559986149999006 80.719333289511 1.04689075 0 0 0
1804 1 52.855003100000005 83.672479989511 1.04689075 0 0 0
1805 1 51.150003000000005 86.625656220978 1.04689075 0 0 0
1806 2 52.855020150001 87.609999079022 1.04689075 0 0 0
1807 2 54.560003200000004 84.656881910489 1.04689075 0 0 0
1808 2 56.265020350001 75.797412279022 1.04689075 0 0 0
1809 2 54.560003200000004 78.750588510489 1.04689075 0 0 0
1810 2 52.855020150001 81.703735210489 1.04689075 0 0 0
1811 2 51.150003000000005 84.656881910489 1.04689075 0 0 0
1812 1 66.49498684999901 65.953599789511 1.04689075 0 0 0
1813 1 64.789986749999 68.906776020978 1.04689075 0 0 0
1814 1 63.084986649999 71.859893189511 1.04689075 0 0 0
1815 1 66.49498684999901 71.859893189511 1.04689075 0 0 0
1816 2 66.4950039 63.984825479022 1.04689075 0 0 0
1817 2 64.790020850001 66.937972179022 1.04689075 0 0 0
1818 2 63.08502075000101 69.891148410489 1.04689075 0 0 0
1819 2 61.380020650001 72.844265579022 1.04689075 0 0 0
1820 2 66.4950039 69.891148410489 1.04689075 0 0 0
1821 2 64.790020850001 72.844265579022 1.04689075 0 0 0
1822 1 61.3800036 74.813069420978 1.04689075 0 0 0
1823 1 59.674986449999004 77.766186589511 1.04689075 0 0 0
1824 1 57.9700034 80.719333289511 1.04689075 0 0 0
1825 1 56.264986249999005 83.672479989511 1.04689075 0 0 0
1826 1 54.559986149999006 86.625656220978 1.04689075 0 0 0
1827 1 64.789986749999 74.813069420978 1.04689075 0 0 0
1828 1 63.084986649999 77.766186589511 1.04689075 0 0 0
1829 1 61.3800036 80.719333289511 1.04689075 0 0 0
1830 1 59.674986449999004 83.672479989511 1.04689075 0 0 0
1831 1 57.9700034 86.625656220978 1.04689075 0 0 0
1832 1 66.49498684999901 77.766186589511 1.04689075 0 0 0
1833 1 64.789986749999 80.719333289511 1.04689075 0 0 0
1834 1 63.084986649999 83.672479989511 1.04689075 0 0 0
1835 1 61.3800036 86.625656220978 1.04689075 0 0 0
1836 1 66.49498684999901 83.672479989511 1.04689075 0 0 0
1837 1 64.789986749999 86.625656220978 1.04689075 0 0 0
1838 2 59.6750035 75.797412279022 1.04689075 0 0 0
1839 2 57.9700034 78.750588510489 1.04689075 0 0 0
1840 2 56.265020350001 81.703735210489 1.04689075 0 0 0
2393 1 35.8050021 89.578802920978 1.04689075 0 0 0
2394 1 34.100002 92.531920089511 1.04689075 0 0 0
2395 1 39.214985249999 89.578802920978 1.04689075 0 0 0
2396 1 37.509985149999004 92.531920089511 1.04689075 0 0 0
2397 1 35.8050021 95.48506678951101 1.04689075 0 0 0
2398 1 34.100002 98.438243020978 1.04689075 0 0 0
2399 1 42.624985449999 89.578802920978 1.04689075 0 0 0
2400 1 40.9200024 92.531920089511 1.04689075 0 0 0
2401 1 39.214985249999 95.48506678951101 1.04689075 0 0 0
2402 1 37.509985149999004 98.438243020978 1.04689075 0 0 0
2403 1 35.8050021 101.391360189511 1.04689075 0 0 0
2404 1 46.034985649999 89.578802920978 1.04689075 0 0 0
2405 1 44.3300026 92.531920089511 1.04689075 0 0 0
2406 1 42.624985449999 95.48506678951101 1.04689075 0 0 0
2407 1 40.9200024 98.438243020978 1.04689075 0 0 0
2408 1 39.214985249999 101.391360189511 1.04689075 0 0 0
2409 1 49.444985849999 89.578802920978 1.04689075 0 0 0
2410 1 47.73998574999901 92.531920089511 1.04689075 0 0 0
2411 1 46.034985649999 95.48506678951101 1.04689075 0 0 0
2412 1 44.3300026 98.438243020978 1.04689075 0 0 0
2413 1 42.624985449999 101.391360189511 1.04689075 0 0 0
2414 2 34.100002 90.563175310489 1.04689075 0 0 0
2415 2 37.5100022 90.563175310489 1.04689075 0 0 0
2416 2 35.805019150001 93.516292479022 1.04689075 0 0 0
2417 2 34.100002 96.469439179022 1.04689075 0 0 0
2418 2 40.9200024 90.563175310489 1.04689075 0 0 0
2419 2 39.215019350001 93.516292479022 1.04689075 0 0 0
2420 2 37.5100022 96.469439179022 1.04689075 0 0 0
2421 2 35.805019150001 99.422615410489 1.04689075 0 0 0
2422 2 34.100002 102.375732579022 1.04689075 0 0 0
2423 2 44.330019650001006 90.563175310489 1.04689075 0 0 0
2424 2 42.62500250000001 93.516292479022 1.04689075 0 0 0
2425 2 40.9200024 96.469439179022 1.04689075 0 0 0
2426 2 39.215019350001 99.422615410489 1.04689075 0 0 0
2427 2 37.5100022 102.375732579022 1.04689075 0 0 0
2428 2 47.740019850001005 90.563175310489 1.04689075 0 0 0
2429 2 46.035019750001005 93.516292479022 1.04689075 0 0 0
2430 2 44.330019650001006 96.469439179022 1.04689075 0 0 0
2431 2 42.62500250000001 99.422615410489 1.04689075 0 0 0
2432 2 40.9200024 102.375732579022 1.04689075 0 0 0
2433 1 34.100002 104.344536420978 1.04689075 0 0 0
2434 1 37.509985149999004 104.344536420978 1.04689075 0 0 0
2435 1 35.8050021 107.297653589511 1.04689075 0 0 0
2436 1 34.100002 110.250800289511 1.04689075 0 0 0
2437 1 40.9200024 104.344536420978 1.04689075 0 0 0
2438 1 39.214985249999 107.297653589511 1.04689075 0 0 0
2439 1 37.509985149999004 110.250800289511 1.04689075 0 0 0
2440 1 35.8050021 113.203946989511 1.04689075 0 0 0
2441 1 34.100002 116.15712322097801 1.04689075 0 0 0
2442 2 35.805019150001 105.328879279022 1.04689075 0 0 0
2443 2 34.100002 108.282055510489 1.04689075 0 0 0
2444 2 39.215019350001 105.328879279022 1.04689075 0 0 0
2445 2 37.5100022 108.282055510489 1.04689075 0 0 0
2446 2 35.805019150001 111.235202210489 1.04689075 0 0 0
2447 2 34.100002 114.188348910489 1.04689075 0 0 0
2448 1 49.444985849999 95.48506678951101 1.04689075 0 0 0
2449 1 47.73998574999901 98.438243020978 1.04689075 0 0 0
2450 1 46.034985649999 101.391360189511 1.04689075 0 0 0
2451 2 66.4950039 117.14146607902201 1.04689075 0 0 0
2452 2 49.445002900000006 93.516292479022 1.04689075 0 0 0
2453 2 47.740019850001005 96.469439179022 1.04689075 0 0 0
2454 2 46.035019750001005 99.422615410489 1.04689075 0 0 0
2455 2 44.330019650001006 102.375732579022 1.04689075 0 0 0
2456 2 63.08502075000101 117.14146607902201 1.04689075 0 0 0
2457 2 64.790020850001 114.188348910489 1.04689075 0 0 0
2458 1 44.3300026 104.344536420978 1.04689075 0 0 0
2459 1 42.624985449999 107.297653589511 1.04689075 0 0 0
2460 1 40.9200024 110.250800289511 1.04689075 0 0 0
2461 1 39.214985249999 113.203946989511 1.04689075 0 0 0
2462 1 37.509985149999004 116.15712322097801 1.04689075 0 0 0
2463 2 66.4950039 111.235202210489 1.04689075 0 0 0
2464 1 46.034985649999 107.297653589511 1.04689075 0 0 0
2465 1 44.3300026 110.250800289511 1.04689075 0 0 0
2466 1 42.624985449999 113.203946989511 1.04689075 0 0 0
2467 1 40.9200024 116.15712322097801 1.04689075 0 0 0
2468 2 59.6750035 117.14146607902201 1.04689075 0 0 0
2469 1 47.73998574999901 110.250800289511 1.04689075 0 0 0
2470 1 46.034985649999 113.203946989511 1.04689075 0 0 0
2471 1 44.3300026 116.15712322097801 1.04689075 0 0 0
2472 1 49.444985849999 113.203946989511 1.04689075 0 0 0
2473 1 47.73998574999901 116.15712322097801 1.04689075 0 0 0
2474 2 42.62500250000001 105.328879279022 1.04689075 0 0 0
2475 2 40.9200024 108.282055510489 1.04689075 0 0 0
2476 2 39.215019350001 111.235202210489 1.04689075 0 0 0
2477 2 37.5100022 114.188348910489 1.04689075 0 0 0
2478 2 35.805019150001 117.14146607902201 1.04689075 0 0 0
2479 2 46.035019750001005 105.328879279022 1.04689075 0 0 0
2480 2 44.330019650001006 108.282055510489 1.04689075 0 0 0
2481 2 42.62500250000001 111.235202210489 1.04689075 0 0 0
2482 2 40.9200024 114.188348910489 1.04689075 0 0 0
2483 2 39.215019350001 117.14146607902201 1.04689075 0 0 0
2484 2 61.380020650001 114.188348910489 1.04689075 0 0 0
2485 2 47.740019850001005 108.282055510489 1.04689075 0 0 0
2486 2 46.035019750001005 111.235202210489 1.04689075 0 0 0
2487 2 44.330019650001006 114.188348910489 1.04689075 0 0 0
2488 2 42.62500250000001 117.14146607902201 1.04689075 0 0 0
2489 2 49.445002900000006 111.235202210489 1.04689075 0 0 0
2490 2 47.740019850001005 114.188348910489 1.04689075 0 0 0
2491 2 46.035019750001005 117.14146607902201 1.04689075 0 0 0
2492 2 49.445002900000006 117.14146607902201 1.04689075 0 0 0
2493 1 52.855003100000005 89.578802920978 1.04689075 0 0 0
2494 1 51.150003000000005 92.531920089511 1.04689075 0 0 0
2495 1 56.264986249999005 89.578802920978 1.04689075 0 0 0
2496 1 54.559986149999006 92.531920089511 1.04689075 0 0 0
2497 1 52.855003100000005 95.48506678951101 1.04689075 0 0 0
2498 2 63.08502075000101 111.235202210489 1.04689075 0 0 0
2499 1 59.674986449999004 89.578802920978 1.04689075 0 0 0
2500 1 57.9700034 92.531920089511 1.04689075 0 0 0
2501 1 56.264986249999005 95.48506678951101 1.04689075 0 0 0
2502 1 54.559986149999006 98.438243020978 1.04689075 0 0 0
2503 2 64.790020850001 108.282055510489 1.04689075 0 0 0
2504 1 63.084986649999 89.578802920978 1.04689075 0 0 0
2505 1 61.3800036 92.531920089511 1.04689075 0 0 0
2506 1 59.674986449999004 95.48506678951101 1.04689075 0 0 0
2507 1 57.9700034 98.438243020978 1.04689075 0 0 0
2508 1 56.264986249999005 101.391360189511 1.04689075 0 0 0
2509 1 66.49498684999901 89.578802920978 1.04689075 0 0 0
2510 1 64.789986749999 92.531920089511 1.04689075 0 0 0
2511 1 63.084986649999 95.48506678951101 1.04689075 0 0 0
2512 1 61.3800036 98.438243020978 1.04689075 0 0 0
2513 1 59.674986449999004 101.391360189511 1.04689075 0 0 0
2514 2 51.150003000000005 90.563175310489 1.04689075 0 0 0
2515 2 54.560003200000004 90.563175310489 1.04689075 0 0 0
2516 2 52.855020150001 93.516292479022 1.04689075 0 0 0
2517 2 51.150003000000005 96.469439179022 1.04689075 0 0 0
2518 2 57.9700034 90.563175310489 1.04689075 0 0 0
2519 2 56.265020350001 93.516292479022 1.04689075 0 0 0
2520 2 54.560003200000004 96.469439179022 1.04689075 0 0 0
2521 2 66.4950039 105.328879279022 1.04689075 0 0 0
2522 2 56.265020350001 117.14146607902201 1.04689075 0 0 0
2523 2 61.380020650001 90.563175310489 1.04689075 0 0 0
2524 2 59.6750035 93.516292479022 1.04689075 0 0 0
2525 2 57.9700034 96.469439179022 1.04689075 0 0 0
2526 2 56.265020350001 99.422615410489 1.04689075 0 0 0
2527 2 57.9700034 114.188348910489 1.04689075 0 0 0
2528 2 64.790020850001 90.563175310489 1.04689075 0 0 0
2529 2 63.08502075000101 93.516292479022 1.04689075 0 0 0
2530 2 61.380020650001 96.469439179022 1.04689075 0 0 0
2531 2 59.6750035 99.422615410489 1.04689075 0 0 0
2532 2 57.9700034 102.375732579022 1.04689075 0 0 0
2533 2 59.6750035 111.235202210489 1.04689075 0 0 0
2534 2 61.380020650001 108.282055510489 1.04689075 0 0 0
2535 2 63.08502075000101 105.328879279022 1.04689075 0 0 0
2536 1 51.150003000000005 110.250800289511 1.04689075 0 0 0
2537 1 57.9700034 104.344536420978 1.04689075 0 0 0
2538 1 56.264986249999005 107.297653589511 1.04689075 0 0 0
2539 1 54.559986149999006 110.250800289511 1.04689075 0 0 0
2540 1 52.855003100000005 113.203946989511 1.04689075 0 0 0
2541 1 51.150003000000005 116.15712322097801 1.04689075 0 0 0
2542 2 52.855020150001 117.14146607902201 1.04689075 0 0 0
2543 2 54.560003200000004 114.188348910489 1.04689075 0 0 0
2544 2 56.265020350001 105.328879279022 1.04689075 0 0 0
2545 2 54.560003200000004 108.282055510489 1.04689075 0 0 0
2546 2 52.855020150001 111.235202210489 1.04689075 0 0 0
2547 2 51.150003000000005 114.188348910489 1.04689075 0 0 0
2548 1 66.49498684999901 95.48506678951101 1.04689075 0 0 0
2549 1 64.789986749999 98.438243020978 1.04689075 0 0 0
2550 1 63.084986649999 101.391360189511 1.04689075 0 0 0
2551 1 66.49498684999901 101.391360189511 1.04689075 0 0 0
2552 2 66.4950039 93.516292479022 1.04689075 0 0 0
2553 2 64.790020850001 96.469439179022 1.04689075 0 0 0
2554 2 63.08502075000101 99.422615410489 1.04689075 0 0 0
2555 2 61.380020650001 102.375732579022 1.04689075 0 0 0
2556 2 66.4950039 99.422615410489 1.04689075 0 0 0
2557 2 64.790020850001 102.375732579022 1.04689075 0 0 0
2558 1 61.3800036 104.344536420978 1.04689075 0 0 0
2559 1 59.674986449999004 107.297653589511 1.04689075 0 0 0
2560 1 57.9700034 110.250800289511 1.04689075 0 0 0
2561 1 56.264986249999005 113.203946989511 1.04689075 0 0 0
2562 1 54.559986149999006 116.15712322097801 1.04689075 0 0 0
2563 1 64.789986749999 104.344536420978 1.04689075 0 0 0
2564 1 63.084986649999 107.297653589511 1.04689075 0 0 0
2565 1 61.3800036 110.250800289511 1.04689075 0 0 0
2566 1 59.674986449999004 113.203946989511 1.04689075 0 0 0
2567 1 57.9700034 116.15712322097801 1.04689075 0 0 0
2568 1 66.49498684999901 107.297653589511 1.04689075 0 0 0
2569 1 64.789986749999 110.250800289511 1.04689075 0 0 0
2570 1 63.084986649999 113.203946989511 1.04689075 0 0 0
2571 1 61.3800036 116.15712322097801 1.04689075 0 0 0
2572 1 66.49498684999901 113.203946989511 1.04689075 0 0 0
2573 1 64.789986749999 116.15712322097801 1.04689075 0 0 0
2574 2 59.6750035 105.328879279022 1.04689075 0 0 0
2575 2 57.9700034 108.282055510489 1.04689075 0 0 0
2576 2 56.265020350001 111.235202210489 1.04689075 0 0 0
3129 1 35.8050021 119.110269920978 1.04689075 0 0 0
3130 1 34.100002 122.063387089511 1.04689075 0 0 0
3131 1 39.214985249999 119.110269920978 1.04689075 0 0 0
3132 1 37.509985149999004 122.063387089511 1.04689075 0 0 0
3133 1 35.8050021 125.016533789511 1.04689075 0 0 0
3134 1 34.100002 127.969710020978 1.04689075 0 0 0
3135 1 42.624985449999 119.110269920978 1.04689075 0 0 0
3136 1 40.9200024 122.063387089511 1.04689075 0 0 0
3137 1 39.214985249999 125.016533789511 1.04689075 0 0 0
3138 1 37.509985149999004 127.969710020978 1.04689075 0 0 0
3139 1 35.8050021 130.922827189511 1.04689075 0 0 0
3140 1 46.034985649999 119.110269920978 1.04689075 0 0 0
3141 1 44.3300026 122.063387089511 1.04689075 0 0 0
3142 1 42.624985449999 125.016533789511 1.04689075 0 0 0
3143 1 40.9200024 127.969710020978 1.04689075 0 0 0
3144 1 39.214985249999 130.922827189511 1.04689075 0 0 0
3145 1 49.444985849999 119.110269920978 1.04689075 0 0 0
3146 1 47.73998574999901 122.063387089511 1.04689075 0 0 0
3147 1 46.034985649999 125.016533789511 1.04689075 0 0 0
3148 1 44.3300026 127.969710020978 1.04689075 0 0 0
3149 1 42.624985449999 130.922827189511 1.04689075 0 0 0
3150 2 34.100002 120.094642310489 1.04689075 0 0 0
3151 2 37.5100022 120.094642310489 1.04689075 0 0 0
3152 2 35.805019150001 123.04775947902199 1.04689075 0 0 0
3153 2 34.100002 126.000906179022 1.04689075 0 0 0
3154 2 40.9200024 120.094642310489 1.04689075 0 0 0
3155 2 39.215019350001 123.04775947902199 1.04689075 0 0 0
3156 2 37.5100022 126.000906179022 1.04689075 0 0 0
3157 2 35.805019150001 128.954082410489 1.04689075 0 0 0
3158 2 34.100002 131.907199579022 1.04689075 0 0 0
3159 2 44.330019650001006 120.094642310489 1.04689075 0 0 0
3160 2 42.62500250000001 123.04775947902199 1.04689075 0 0 0
3161 2 40.9200024 126.000906179022 1.04689075 0 0 0
3162 2 39.215019350001 128.954082410489 1.04689075 0 0 0
3163 2 37.5100022 131.907199579022 1.04689075 0 0 0
3164 2 47.740019850001005 120.094642310489 1.04689075 0 0 0
3165 2 46.035019750001005 123.04775947902199 1.04689075 0 0 0
3166 2 44.330019650001006 126.000906179022 1.04689075 0 0 0
3167 2 42.62500250000001 128.954082410489 1.04689075 0 0 0
3168 2 40.9200024 131.907199579022 1.04689075 0 0 0
3169 1 34.100002 133.876003420978 1.04689075 0 0 0
3170 1 37.509985149999004 133.876003420978 1.04689075 0 0 0
3171 1 35.8050021 136.829120589511 1.04689075 0 0 0
3172 1 34.100002 139.782267289511 1.04689075 0 0 0
3173 1 40.9200024 133.876003420978 1.04689075 0 0 0
3174 1 39.214985249999 136.829120589511 1.04689075 0 0 0
3175 1 37.509985149999004 139.782267289511 1.04689075 0 0 0
3176 1 35.8050021 142.735413989511 1.04689075 0 0 0
3177 1 34.100002 145.688590220978 1.04689075 0 0 0
3178 2 35.805019150001 134.860346279022 1.04689075 0 0 0
3179 2 34.100002 137.813522510489 1.04689075 0 0 0
3180 2 39.215019350001 134.860346279022 1.04689075 0 0 0
3181 2 37.5100022 137.813522510489 1.04689075 0 0 0
3182 2 35.805019150001 140.766669210489 1.04689075 0 0 0
3183 2 34.100002 143.719815910489 1.04689075 0 0 0
3184 1 49.444985849999 125.016533789511 1.04689075 0 0 0
3185 1 47.73998574999901 127.969710020978 1.04689075 0 0 0
3186 1 46.034985649999 130.922827189511 1.04689075 0 0 0
3187 2 66.4950039 146.672933079022 1.04689075 0 0 0
3188 2 49.445002900000006 123.04775947902199 1.04689075 0 0 0
3189 2 47.740019850001005 126.000906179022 1.04689075 0 0 0
3190 2 46.035019750001005 128.954082410489 1.04689075 0 0 0
3191 2 44.330019650001006 131.907199579022 1.04689075 0 0 0
3192 2 63.08502075000101 146.672933079022 1.04689075 0 0 0
3193 2 64.790020850001 143.719815910489 1.04689075 0 0 0
3194 1 44.3300026 133.876003420978 1.04689075 0 0 0
3195 1 42.624985449999 136.829120589511 1.04689075 0 0 0
3196 1 40.9200024 139.782267289511 1.04689075 0 0 0
3197 1 39.214985249999 142.735413989511 1.04689075 0 0 0
3198 1 37.509985149999004 145.688590220978 1.04689075 0 0 0
3199 2 66.4950039 140.766669210489 1.04689075 0 0 0
3200 1 46.034985649999 136.829120589511 1.04689075 0 0 0
3201 1 44.3300026 139.782267289511 1.04689075 0 0 0
3202 1 42.624985449999 142.735413989511 1.04689075 0 0 0
3203 1 40.9200024 145.688590220978 1.04689075 0 0 0
3204 2 59.6750035 146.672933079022 1.04689075 0 0 0
3205 1 47.73998574999901 139.782267289511 1.04689075 0 0 0
3206 1 46.034985649999 142.735413989511 1.04689075 0 0 0
3207 1 44.3300026 145.688590220978 1.04689075 0 0 0
3208 1 49.444985849999 142.735413989511 1.04689075 0 0 0
3209 1 47.73998574999901 145.688590220978 1.04689075 0 0 0
3210 2 42.62500250000001 134.860346279022 1.04689075 0 0 0
3211 2 40.9200024 137.813522510489 1.04689075 0 0 0
3212 2 39.215019350001 140.766669210489 1.04689075 0 0 0
3213 2 37.5100022 143.719815910489 1.04689075 0 0 0
3214 2 35.805019150001 146.672933079022 1.04689075 0 0 0
3215 2 46.035019750001005 134.860346279022 1.04689075 0 0 0
3216 2 44.330019650001006 137.813522510489 1.04689075 0 0 0
3217 2 42.62500250000001 140.766669210489 1.04689075 0 0 0
3218 2 40.9200024 143.719815910489 1.04689075 0 0 0
3219 2 39.215019350001 146.672933079022 1.04689075 0 0 0
3220 2 61.380020650001 143.719815910489 1.04689075 0 0 0
3221 2 47.740019850001005 137.813522510489 1.04689075 0 0 0
3222 2 46.035019750001005 140.766669210489 1.04689075 0 0 0
3223 2 44.330019650001006 143.719815910489 1.04689075 0 0 0
3224 2 42.62500250000001 146.672933079022 1.04689075 0 0 0
3225 2 49.445002900000006 140.766669210489 1.04689075 0 0 0
3226 2 47.740019850001005 143.719815910489 1.04689075 0 0 0
3227 2 46.035019750001005 146.672933079022 1.04689075 0 0 0
3228 2 49.445002900000006 146.672933079022 1.04689075 0 0 0
3229 1 52.855003100000005 119.110269920978 1.04689075 0 0 0
3230 1 51.150003000000005 122.063387089511 1.04689075 0 0 0
3231 1 56.264986249999005 119.110269920978 1.04689075 0 0 0
3232 1 54.559986149999006 122.063387089511 1.04689075 0 0 0
3233 1 52.855003100000005 125.016533789511 1.04689075 0 0 0
3234 2 63.08502075000101 140.766669210489 1.04689075 0 0 0
3235 1 59.674986449999004 119.110269920978 1.04689075 0 0 0
3236 1 57.9700034 122.063387089511 1.04689075 0 0 0
3237 1 56.264986249999005 125.016533789511 1.04689075 0 0 0
3238 1 54.559986149999006 127.969710020978 1.04689075 0 0 0
3239 2 64.790020850001 137.813522510489 1.04689075 0 0 0
3240 1 63.084986649999 119.110269920978 1.04689075 0 0 0
3241 1 61.3800036 122.063387089511 1.04689075 0 0 0
3242 1 59.674986449999004 125.016533789511 1.04689075 0 0 0
3243 1 57.9700034 127.969710020978 1.04689075 0 0 0
3244 1 56.264986249999005 130.922827189511 1.04689075 0 0 0
3245 1 66.49498684999901 119.110269920978 1.04689075 0 0 0
3246 1 64.789986749999 122.063387089511 1.04689075 0 0 0
3247 1 63.084986649999 125.016533789511 1.04689075 0 0 0
3248 1 61.3800036 127.969710020978 1.04689075 0 0 0
3249 1 59.674986449999004 130.922827189511 1.04689075 0 0 0
3250 2 51.150003000000005 120.094642310489 1.04689075 0 0 0
3251 2 54.560003200000004 120.094642310489 1.04689075 0 0 0
3252 2 52.855020150001 123.04775947902199 1.04689075 0 0 0
3253 2 51.150003000000005 126.000906179022 1.04689075 0 0 0
3254 2 57.9700034 120.094642310489 1.04689075 0 0 0
3255 2 56.265020350001 123.04775947902199 1.04689075 0 0 0
3256 2 54.560003200000004 126.000906179022 1.04689075 0 0 0
3257 2 66.4950039 134.860346279022 1.04689075 0 0 0
3258 2 56.265020350001 146.672933079022 1.04689075 0 0 0
3259 2 61.380020650001 120.094642310489 1.04689075 0 0 0
3260 2 59.6750035 123.04775947902199 1.04689075 0 0 0
3261 2 57.9700034 126.000906179022 1.04689075 0 0 0
3262 2 56.265020350001 128.954082410489 1.04689075 0 0 0
3263 2 57.9700034 143.719815910489 1.04689075 0 0 0
3264 2 64.790020850001 120.094642310489 1.04689075 0 0 0
3265 2 63.08502075000101 123.04775947902199 1.04689075 0 0 0
3266 2 61.380020650001 126.000906179022 1.04689075 0 0 0
3267 2 59.6750035 128.954082410489 1.04689075 0 0 0
3268 2 57.9700034 131.907199579022 1.04689075 0 0 0
3269 2 59.6750035 140.766669210489 1.04689075 0 0 0
3270 2 61.380020650001 137.813522510489 1.04689075 0 0 0
3271 2 63.08502075000101 134.860346279022 1.04689075 0 0 0
3272 1 51.150003000000005 139.782267289511 1.04689075 0 0 0
3273 1 57.9700034 133.876003420978 1.04689075 0 0 0
3274 1 56.264986249999005 136.829120589511 1.04689075 0 0 0
3275 1 54.559986149999006 139.782267289511 1.04689075 0 0 0
3276 1 52.855003100000005 142.735413989511 1.04689075 0 0 0
3277 1 51.150003000000005 145.688590220978 1.04689075 0 0 0
3278 2 52.855020150001 146.672933079022 1.04689075 0 0 0
3279 2 54.560003200000004 143.719815910489 1.04689075 0 0 0
3280 2 56.265020350001 134.860346279022 1.04689075 0 0 0
3281 2 54.560003200000004 137.813522510489 1.04689075 0 0 0
3282 2 52.855020150001 140.766669210489 1.04689075 0 0 0
3283 2 51.150003000000005 143.719815910489 1.04689075 0 0 0
3284 1 66.49498684999901 125.016533789511 1.04689075 0 0 0
3285 1 64.789986749999 127.969710020978 1.04689075 0 0 0
3286 1 63.084986649999 130.922827189511 1.04689075 0 0 0
3287 1 66.49498684999901 130.922827189511 1.04689075 0 0 0
3288 2 66.4950039 123.04775947902199 1.04689075 0 0 0
3289 2 64.790020850001 126.000906179022 1.04689075 0 0 0
3290 2 63.08502075000101 128.954082410489 1.04689075 0 0 0
3291 2 61.380020650001 131.907199579022 1.04689075 0 0 0
3292 2 66.4950039 128.954082410489 1.04689075 0 0 0
3293 2 64.790020850001 131.907199579022 1.04689075 0 0 0
3294 1 61.3800036 133.876003420978 1.04689075 0 0 0
3295 1 59.674986449999004 136.829120589511 1.04689075 0 0 0
3296 1 57.9700034 139.782267289511 1.04689075 0 0 0
3297 1 56.264986249999005 142.735413989511 1.04689075 0 0 0
3298 1 54.559986149999006 145.688590220978 1.04689075 0 0 0
3299 1 64.789986749999 133.876003420978 1.04689075 0 0 0
3300 1 63.084986649999 136.829120589511 1.04689075 0 0 0
3301 1 61.3800036 139.782267289511 1.04689075 0 0 0
3302 1 59.674986449999004 142.735413989511 1.04689075 0 0 0
3303 1 57.9700034 145.688590220978 1.04689075 0 0 0
3304 1 66.49498684999901 136.829120589511 1.04689075 0 0 0
3305 1 64.789986749999 139.782267289511 1.04689075 0 0 0
3306 1 63.084986649999 142.735413989511 1.04689075 0 0 0
3307 1 61.3800036 145.688590220978 1.04689075 0 0 0
3308 1 66.49498684999901 142.735413989511 1.04689075 0 0 0
3309 1 64.789986749999 145.688590220978 1.04689075 0 0 0
3310 2 59.6750035 134.860346279022 1.04689075 0 0 0
3311 2 57.9700034 137.813522510489 1.04689075 0 0 0
3312 2 56.265020350001 140.766669210489 1.04689075 0 0 0
3865 1 35.8050021 148.641736920978 1.04689075 0 0 0
3866 1 34.100002 151.594854089511 1.04689075 0 0 0
3867 1 39.214985249999 148.641736920978 1.04689075 0 0 0
3868 1 37.509985149999004 151.594854089511 1.04689075 0 0 0
3869 1 35.8050021 154.54800078951098 1.04689075 0 0 0
3870 1 34.100002 157.501177020978 1.04689075 0 0 0
3871 1 42.624985449999 148.641736920978 1.04689075 0 0 0
3872 1 40.9200024 151.594854089511 1.04689075 0 0 0
3873 1 39.214985249999 154.54800078951098 1.04689075 0 0 0
3874 1 37.509985149999004 157.501177020978 1.04689075 0 0 0
3875 1 35.8050021 160.454294189511 1.04689075 0 0 0
3876 1 46.034985649999 148.641736920978 1.04689075 0 0 0
3877 1 44.3300026 151.594854089511 1.04689075 0 0 0
3878 1 42.624985449999 154.54800078951098 1.04689075 0 0 0
3879 1 40.9200024 157.501177020978 1.04689075 0 0 0
3880 1 39.214985249999 160.454294189511 1.04689075 0 0 0
3881 1 49.444985849999 148.641736920978 1.04689075 0 0 0
3882 1 47.73998574999901 151.594854089511 1.04689075 0 0 0
3883 1 46.034985649999 154.54800078951098 1.04689075 0 0 0
3884 1 44.3300026 157.501177020978 1.04689075 0 0 0
3885 1 42.624985449999 160.454294189511 1.04689075 0 0 0
3886 2 34.100002 149.626109310489 1.04689075 0 0 0
3887 2 37.5100022 149.626109310489 1.04689075 0 0 0
3888 2 35.805019150001 152.579226479022 1.04689075 0 0 0
3889 2 34.100002 155.532373179022 1.04689075 0 0 0
3890 2 40.9200024 149.626109310489 1.04689075 0 0 0
3891 2 39.215019350001 152.579226479022 1.04689075 0 0 0
3892 2 37.5100022 155.532373179022 1.04689075 0 0 0
3893 2 35.805019150001 158.485549410489 1.04689075 0 0 0
3894 2 34.100002 161.438666579022 1.04689075 0 0 0
3895 2 44.330019650001006 149.626109310489 1.04689075 0 0 0
3896 2 42.62500250000001 152.579226479022 1.04689075 0 0 0
3897 2 40.9200024 155.532373179022 1.04689075 0 0 0
3898 2 39.215019350001 158.485549410489 1.04689075 0 0 0
3899 2 37.5100022 161.438666579022 1.04689075 0 0 0
3900 2 47.740019850001005 149.626109310489 1.04689075 0 0 0
3901 2 46.035019750001005 152.579226479022 1.04689075 0 0 0
3902 2 44.330019650001006 155.532373179022 1.04689075 0 0 0
3903 2 42.62500250000001 158.485549410489 1.04689075 0 0 0
3904 2 40.9200024 161.438666579022 1.04689075 0 0 0
3905 1 34.100002 163.407470420978 1.04689075 0 0 0
3906 1 37.509985149999004 163.407470420978 1.04689075 0 0 0
3907 1 35.8050021 166.360587589511 1.04689075 0 0 0
3908 1 34.100002 169.313734289511 1.04689075 0 0 0
3909 1 40.9200024 163.407470420978 1.04689075 0 0 0
3910 1 39.214985249999 166.360587589511 1.04689075 0 0 0
3911 1 37.509985149999004 169.313734289511 1.04689075 0 0 0
3912 1 35.8050021 172.26688098951098 1.04689075 0 0 0
3913 1 34.100002 175.220057220978 1.04689075 0 0 0
3914 2 35.805019150001 164.391813279022 1.04689075 0 0 0
3915 2 34.100002 167.344989510489 1.04689075 0 0 0
3916 2 39.215019350001 164.391813279022 1.04689075 0 0 0
3917 2 37.5100022 167.344989510489 1.04689075 0 0 0
3918 2 35.805019150001 170.298136210489 1.04689075 0 0 0
3919 2 34.100002 173.25128291048898 1.04689075 0 0 0
3920 1 49.444985849999 154.54800078951098 1.04689075 0 0 0
3921 1 47.73998574999901 157.501177020978 1.04689075 0 0 0
3922 1 46.034985649999 160.454294189511 1.04689075 0 0 0
3923 2 66.4950039 176.20440007902198 1.04689075 0 0 0
3924 2 49.445002900000006 152.579226479022 1.04689075 0 0 0
3925 2 47.740019850001005 155.532373179022 1.04689075 0 0 0
3926 2 46.035019750001005 158.485549410489 1.04689075 0 0 0
3927 2 44.330019650001006 161.438666579022 1.04689075 0 0 0
3928 2 63.08502075000101 176.20440007902198 1.04689075 0 0 0
3929 2 64.790020850001 173.25128291048898 1.04689075 0 0 0
3930 1 44.3300026 163.407470420978 1.04689075 0 0 0
3931 1 42.624985449999 166.360587589511 1.04689075 0 0 0
3932 1 40.9200024 169.313734289511 1.04689075 0 0 0
3933 1 39.214985249999 172.26688098951098 1.04689075 0 0 0
3934 1 37.509985149999004 175.220057220978 1.04689075 0 0 0
3935 2 66.4950039 170.298136210489 1.04689075 0 0 0
3936 1 46.034985649999 166.360587589511 1.04689075 0 0 0
3937 1 44.3300026 169.313734289511 1.04689075 0 0 0
3938 1 42.624985449999 172.26688098951098 1.04689075 0 0 0
3939 1 40.9200024 175.220057220978 1.04689075 0 0 0
3940 2 59.6750035 176.20440007902198 1.04689075 0 0 0
3941 1 47.73998574999901 169.313734289511 1.04689075 0 0 0
3942 1 46.034985649999 172.26688098951098 1.04689075 0 0 0
3943 1 44.3300026 175.220057220978 1.04689075 0 0 0
3944 1 49.444985849999 172.26688098951098 1.04689075 0 0 0
3945 1 47.73998574999901 175.220057220978 1.04689075 0 0 0
3946 2 42.62500250000001 164.391813279022 1.04689075 0 0 0
3947 2 40.9200024 167.344989510489 1.04689075 0 0 0
3948 2 39.215019350001 170.298136210489 1.04689075 0 0 0
3949 2 37.5100022 173.25128291048898 1.04689075 0 0 0
3950 2 35.805019150001 176.20440007902198 1.04689075 0 0 0
3951 2 46.035019750001005 164.391813279022 1.04689075 0 0 0
3952 2 44.330019650001006 167.344989510489 1.04689075 0 0 0
3953 2 42.62500250000001 170.298136210489 1.04689075 0 0 0
3954 2 40.9200024 173.25128291048898 1.04689075 0 0 0
3955 2 39.215019350001 176.20440007902198 1.04689075 0 0 0
3956 2 61.380020650001 173.25128291048898 1.04689075 0 0 0
3957 2 47.740019850001005 167.344989510489 1.04689075 0 0 0
3958 2 46.035019750001005 170.298136210489 1.04689075 0 0 0
3959 2 44.330019650001006 173.25128291048898 1.04689075 0 0 0
3960 2 42.62500250000001 176.20440007902198 1.04689075 0 0 0
3961 2 49.445002900000006 170.298136210489 1.04689075 0 0 0
3962 2 47.740019850001005 173.25128291048898 1.04689075 0 0 0
3963 2 46.035019750001005 176.20440007902198 1.04689075 0 0 0
3964 2 49.445002900000006 176.20440007902198 1.04689075 0 0 0
3965 1 52.855003100000005 148.641736920978 1.04689075 0 0 0
3966 1 51.150003000000005 151.594854089511 1.04689075 0 0 0
3967 1 56.264986249999005 148.641736920978 1.04689075 0 0 0
3968 1 54.559986149999006 151.594854089511 1.04689075 0 0 0
3969 1 52.855003100000005 154.54800078951098 1.04689075 0 0 0
3970 2 63.08502075000101 170.298136210489 1.04689075 0 0 0
3971 1 59.674986449999004 148.641736920978 1.04689075 0 0 0
3972 1 57.9700034 151.594854089511 1.04689075 0 0 0
3973 1 56.264986249999005 154.54800078951098 1.04689075 0 0 0
3974 1 54.559986149999006 157.501177020978 1.04689075 0 0 0
3975 2 64.790020850001 167.344989510489 1.04689075 0 0 0
3976 1 63.084986649999 148.641736920978 1.04689075 0 0 0
3977 1 61.3800036 151.594854089511 1.04689075 0 0 0
3978 1 59.674986449999004 154.54800078951098 1.04689075 0 0 0
3979 1 57.9700034 157.501177020978 1.04689075 0 0 0
3980 1 56.264986249999005 160.454294189511 1.04689075 0 0 0
3981 1 66.49498684999901 148.641736920978 1.04689075 0 0 0
3982 1 64.789986749999 151.594854089511 1.04689075 0 0 0
3983 1 63.084986649999 154.54800078951098 1.04689075 0 0 0
3984 1 61.3800036 157.501177020978 1.04689075 0 0 0
3985 1 59.674986449999004 160.454294189511 1.04689075 0 0 0
3986 2 51.150003000000005 149.626109310489 1.04689075 0 0 0
3987 2 54.560003200000004 149.626109310489 1.04689075 0 0 0
3988 2 52.855020150001 152.579226479022 1.04689075 0 0 0
3989 2 51.150003000000005 155.532373179022 1.04689075 0 0 0
3990 2 57.9700034 149.626109310489 1.04689075 0 0 0
3991 2 56.265020350001 152.579226479022 1.04689075 0 0 0
3992 2 54.560003200000004 155.532373179022 1.04689075 0 0 0
3993 2 66.4950039 164.391813279022 1.04689075 0 0 0
3994 2 56.265020350001 176.20440007902198 1.04689075 0 0 0
3995 2 61.380020650001 149.626109310489 1.04689075 0 0 0
3996 2 59.6750035 152.579226479022 1.04689075 0 0 0
3997 2 57.9700034 155.532373179022 1.04689075 0 0 0
3998 2 56.265020350001 158.485549410489 1.04689075 0 0 0
3999 2 57.9700034 173.25128291048898 1.04689075 0 0 0
4000 2 64.790020850001 149.626109310489 1.04689075 0 0 0
4001 2 63.08502075000101 152.579226479022 1.04689075 0 0 0
4002 2 61.380020650001 155.532373179022 1.04689075 0 0 0
4003 2 59.6750035 158.485549410489 1.04689075 0 0 0
4004 2 57.9700034 161.438666579022 1.04689075 0 0 0
4005 2 59.6750035 170.298136210489 1.04689075 0 0 0
4006 2 61.380020650001 167.344989510489 1.04689075 0 0 0
4007 2 63.08502075000101 164.391813279022 1.04689075 0 0 0
4008 1 51.150003000000005 169.313734289511 1.04689075 0 0 0
4009 1 57.9700034 163.407470420978 1.04689075 0 0 0
4010 1 56.264986249999005 166.360587589511 1.04689075 0 0 0
4011 1 54.559986149999006 169.313734289511 1.04689075 0 0 0
4012 1 52.855003100000005 172.26688098951098 1.04689075 0 0 0
4013 1 51.150003000000005 175.220057220978 1.04689075 0 0 0
4014 2 52.855020150001 176.20440007902198 1.04689075 0 0 0
4015 2 54.560003200000004 173.25128291048898 1.04689075 0 0 0
4016 2 56.265020350001 164.391813279022 1.04689075 0 0 0
4017 2 54.560003200000004 167.344989510489 1.04689075 0 0 0
4018 2 52.855020150001 170.298136210489 1.04689075 0 0 0
4019 2 51.150003000000005 173.25128291048898 1.04689075 0 0 0
4020 1 66.49498684999901 154.54800078951098 1.04689075 0 0 0
4021 1 64.789986749999 157.501177020978 1.04689075 0 0 0
4022 1 63.084986649999 160.454294189511 1.04689075 0 0 0
4023 1 66.49498684999901 160.454294189511 1.04689075 0 0 0
4024 2 66.4950039 152.579226479022 1.04689075 0 0 0
4025 2 64.790020850001 155.532373179022 1.04689075 0 0 0
4026 2 63.08502075000101 158.485549410489 1.04689075 0 0 0
4027 2 61.380020650001 161.438666579022 1.04689075 0 0 0
4028 2 66.4950039 158.485549410489 1.04689075 0 0 0
4029 2 64.790020850001 161.438666579022 1.04689075 0 0 0
4030 1 61.3800036 163.407470420978 1.04689075 0 0 0
4031 1 59.674986449999004 166.360587589511 1.04689075 0 0 0
4032 1 57.9700034 169.313734289511 1.04689075 0 0 0
4033 1 56.264986249999005 172.26688098951098 1.04689075 0 0 0
4034 1 54.559986149999006 175.220057220978 1.04689075 0 0 0
4035 1 64.789986749999 163.407470420978 1.04689075 0 0 0
4036 1 63.084986649999 166.360587589511 1.04689075 0 0 0
4037 1 61.3800036 169.313734289511 1.04689075 0 0 0
4038 1 59.674986449999004 172.26688098951098 1.04689075 0 0 0
4039 1 57.9700034 175.220057220978 1.04689075 0 0 0
4040 1 66.49498684999901 166.360587589511 1.04689075 0 0 0
4041 1 64.789986749999 169.313734289511 1.04689075 0 0 0
4042 1 63.084986649999 172.26688098951098 1.04689075 0 0 0
4043 1 61.3800036 175.220057220978 1.04689075 0 0 0
4044 1 66.49498684999901 172.26688098951098 1.04689075 0 0 0
4045 1 64.789986749999 175.220057220978 1.04689075 0 0 0
4046 2 59.6750035 164.391813279022 1.04689075 0 0 0
4047 2 57.9700034 167.344989510489 1.04689075 0 0 0
4048 2 56.265020350001 170.298136210489 1.04689075 0 0 0
4601 1 35.8050021 178.173203920978 1.04689075 0 0 0
4602 1 34.100002 181.126321089511 1.04689075 0 0 0
4603 1 39.214985249999 178.173203920978 1.04689075 0 0 0
4604 1 37.509985149999004 181.126321089511 1.04689075 0 0 0
4605 1 35.8050021 184.079467789511 1.04689075 0 0 0
4606 1 34.100002 187.032644020978 1.04689075 0 0 0
4607 1 42.624985449999 178.173203920978 1.04689075 0 0 0
4608 1 40.9200024 181.126321089511 1.04689075 0 0 0
4609 1 39.214985249999 184.079467789511 1.04689075 0 0 0
4610 1 37.509985149999004 187.032644020978 1.04689075 0 0 0
4611 1 35.8050021 189.985761189511 1.04689075 0 0 0
4612 1 46.034985649999 178.173203920978 1.04689075 0 0 0
4613 1 44.3300026 181.126321089511 1.04689075 0 0 0
4614 1 42.624985449999 184.079467789511 1.04689075 0 0 0
4615 1 40.9200024 187.032644020978 1.04689075 0 0 0
4616 1 39.214985249999 189.985761189511 1.04689075 0 0 0
4617 1 49.444985849999 178.173203920978 1.04689075 0 0 0
4618 1 47.73998574999901 181.126321089511 1.04689075 0 0 0
4619 1 46.034985649999 184.079467789511 1.04689075 0 0 0
4620 1 44.3300026 187.032644020978 1.04689075 0 0 0
4621 1 42.624985449999 189.985761189511 1.04689075 0 0 0
4622 2 34.100002 179.15757631048902 1.04689075 0 0 0
4623 2 37.5100022 179.15757631048902 1.04689075 0 0 0
4624 2 35.805019150001 182.11069347902202 1.04689075 0 0 0
4625 2 34.100002 185.063840179022 1.04689075 0 0 0
4626 2 40.9200024 179.15757631048902 1.04689075 0 0 0
4627 2 39.215019350001 182.11069347902202 1.04689075 0 0 0
4628 2 37.5100022 185.063840179022 1.04689075 0 0 0
4629 2 35.805019150001 188.01701641048902 1.04689075 0 0 0
4630 2 34.100002 190.97013357902202 1.04689075 0 0 0
4631 2 44.330019650001006 179.15757631048902 1.04689075 0 0 0
4632 2 42.62500250000001 182.11069347902202 1.04689075 0 0 0
4633 2 40.9200024 185.063840179022 1.04689075 0 0 0
4634 2 39.215019350001 188.01701641048902 1.04689075 0 0 0
4635 2 37.5100022 190.97013357902202 1.04689075 0 0 0
4636 2 47.740019850001005 179.15757631048902 1.04689075 0 0 0
4637 2 46.035019750001005 182.11069347902202 1.04689075 0 0 0
4638 2 44.330019650001006 185.063840179022 1.04689075 0 0 0
4639 2 42.62500250000001 188.01701641048902 1.04689075 0 0 0
4640 2 40.9200024 190.97013357902202 1.04689075 0 0 0
4641 1 34.100002 192.93893742097802 1.04689075 0 0 0
4642 1 37.509985149999004 192.93893742097802 1.04689075 0 0 0
4643 1 35.8050021 195.89205458951102 1.04689075 0 0 0
4644 1 34.100002 198.845201289511 1.04689075 0 0 0
4645 1 40.9200024 192.93893742097802 1.04689075 0 0 0
4646 1 39.214985249999 195.89205458951102 1.04689075 0 0 0
4647 1 37.509985149999004 198.845201289511 1.04689075 0 0 0
4648 1 35.8050021 201.798347989511 1.04689075 0 0 0
4649 1 34.100002 204.751524220978 1.04689075 0 0 0
4650 2 35.805019150001 193.923280279022 1.04689075 0 0 0
4651 2 34.100002 196.87645651048902 1.04689075 0 0 0
4652 2 39.215019350001 193.923280279022 1.04689075 0 0 0
4653 2 37.5100022 196.87645651048902 1.04689075 0 0 0
4654 2 35.805019150001 199.829603210489 1.04689075 0 0 0
4655 2 34.100002 202.782749910489 1.04689075 0 0 0
4656 1 49.444985849999 184.079467789511 1.04689075 0 0 0
4657 1 47.73998574999901 187.032644020978 1.04689075 0 0 0
4658 1 46.034985649999 189.985761189511 1.04689075 0 0 0
4659 2 66.4950039 205.735867079022 1.04689075 0 0 0
4660 2 49.445002900000006 182.11069347902202 1.04689075 0 0 0
4661 2 47.740019850001005 185.063840179022 1.04689075 0 0 0
4662 2 46.035019750001005 188.01701641048902 1.04689075 0 0 0
4663 2 44.330019650001006 190.97013357902202 1.04689075 0 0 0
4664 2 63.08502075000101 205.735867079022 1.04689075 0 0 0
4665 2 64.790020850001 202.782749910489 1.04689075 0 0 0
4666 1 44.3300026 192.93893742097802 1.04689075 0 0 0
4667 1 42.624985449999 195.89205458951102 1.04689075 0 0 0
4668 1 40.9200024 198.845201289511 1.04689075 0 0 0
4669 1 39.214985249999 201.798347989511 1.04689075 0 0 0
4670 1 37.509985149999004 204.751524220978 1.04689075 0 0 0
4671 2 66.4950039 199.829603210489 1.04689075 0 0 0
4672 1 46.034985649999 195.89205458951102 1.04689075 0 0 0
4673 1 44.3300026 198.845201289511 1.04689075 0 0 0
4674 1 42.624985449999 201.798347989511 1.04689075 0 0 0
4675 1 40.9200024 204.751524220978 1.04689075 0 0 0
4676 2 59.6750035 205.735867079022 1.04689075 0 0 0
4677 1 47.73998574999901 198.845201289511 1.04689075 0 0 0
4678 1 46.034985649999 201.798347989511 1.04689075 0 0 0
4679 1 44.3300026 204.751524220978 1.04689075 0 0 0
4680 1 49.444985849999 201.798347989511 1.04689075 0 0 0
4681 1 47.73998574999901 204.751524220978 1.04689075 0 0 0
4682 2 42.62500250000001 193.923280279022 1.04689075 0 0 0
4683 2 40.9200024 196.87645651048902 1.04689075 0 0 0
4684 2 39.215019350001 199.829603210489 1.04689075 0 0 0
4685 2 37.5100022 202.782749910489 1.04689075 0 0 0
4686 2 35.805019150001 205.735867079022 1.04689075 0 0 0
4687 2 46.035019750001005 193.923280279022 1.04689075 0 0 0
4688 2 44.330019650001006 196.87645651048902 1.04689075 0 0 0
4689 2 42.62500250000001 199.829603210489 1.04689075 0 0 0
4690 2 40.9200024 202.782749910489 1.04689075 0 0 0
4691 2 39.215019350001 205.735867079022 1.04689075 0 0 0
4692 2 61.380020650001 202.782749910489 1.04689075 0 0 0
4693 2 47.740019850001005 196.87645651048902 1.04689075 0 0 0
4694 2 46.035019750001005 199.829603210489 1.04689075 0 0 0
4695 2 44.330019650001006 202.782749910489 1.04689075 0 0 0
4696 2 42.62500250000001 205.735867079022 1.04689075 0 0 0
4697 2 49.445002900000006 199.829603210489 1.04689075 0 0 0
4698 2 47.740019850001005 202.782749910489 1.04689075 0 0 0
4699 2 46.035019750001005 205.735867079022 1.04689075 0 0 0
4700 2 49.445002900000006 205.735867079022 1.04689075 0 0 0
4701 1 52.855003100000005 178.173203920978 1.04689075 0 0 0
4702 1 51.150003000000005 181.126321089511 1.04689075 0 0 0
4703 1 56.264986249999005 178.173203920978 1.04689075 0 0 0
4704 1 54.559986149999006 181.126321089511 1.04689075 0 0 0
4705 1 52.855003100000005 184.079467789511 1.04689075 0 0 0
4706 2 63.08502075000101 199.829603210489 1.04689075 0 0 0
4707 1 59.674986449999004 178.173203920978 1.04689075 0 0 0
4708 1 57.9700034 181.126321089511 1.04689075 0 0 0
4709 1 56.264986249999005 184.079467789511 1.04689075 0 0 0
4710 1 54.559986149999006 187.032644020978 1.04689075 0 0 0
4711 2 64.790020850001 196.87645651048902 1.04689075 0 0 0
4712 1 63.084986649999 178.173203920978 1.04689075 0 0 0
4713 1 61.3800036 181.126321089511 1.04689075 0 0 0
4714 1 59.674986449999004 184.079467789511 1.04689075 0 0 0
4715 1 57.9700034 187.032644020978 1.04689075 0 0 0
4716 1 56.264986249999005 189.985761189511 1.04689075 0 0 0
4717 1 66.49498684999901 178.173203920978 1.04689075 0 0 0
4718 1 64.789986749999 181.126321089511 1.04689075 0 0 0
4719 1 63.084986649999 184.079467789511 1.04689075 0 0 0
4720 1 61.3800036 187.032644020978 1.04689075 0 0 0
4721 1 59.674986449999004 189.985761189511 1.04689075 0 0 0
4722 2 51.150003000000005 179.15757631048902 1.04689075 0 0 0
4723 2 54.560003200000004 179.15757631048902 1.04689075 0 0 0
4724 2 52.855020150001 182.11069347902202 1.04689075 0 0 0
4725 2 51.150003000000005 185.063840179022 1.04689075 0 0 0
4726 2 57.9700034 179.15757631048902 1.04689075 0 0 0
4727 2 56.265020350001 182.11069347902202 1.04689075 0 0 0
4728 2 54.560003200000004 185.063840179022 1.04689075 0 0 0
4729 2 66.4950039 193.923280279022 1.04689075 0 0 0
4730 2 56.265020350001 205.735867079022 1.04689075 0 0 0
4731 2 61.380020650001 179.15757631048902 1.04689075 0 0 0
4732 2 59.6750035 182.11069347902202 1.04689075 0 0 0
4733 2 57.9700034 185.063840179022 1.04689075 0 0 0
4734 2 56.265020350001 188.01701641048902 1.04689075 0 0 0
4735 2 57.9700034 202.782749910489 1.04689075 0 0 0
4736 2 64.790020850001 179.15757631048902 1.04689075 0 0 0
4737 2 63.08502075000101 182.11069347902202 1.04689075 0 0 0
4738 2 61.380020650001 185.063840179022 1.04689075 0 0 0
4739 2 59.6750035 188.01701641048902 1.04689075 0 0 0
4740 2 57.9700034 190.97013357902202 1.04689075 0 0 0
4741 2 59.6750035 199.829603210489 1.04689075 0 0 0
4742 2 61.380020650001 196.87645651048902 1.04689075 0 0 0
4743 2 63.08502075000101 193.923280279022 1.04689075 0 0 0
4744 1 51.150003000000005 198.845201289511 1.04689075 0 0 0
4745 1 57.9700034 192.93893742097802 1.04689075 0 0 0
4746 1 56.264986249999005 195.89205458951102 1.04689075 0 0 0
4747 1 54.559986149999006 198.845201289511 1.04689075 0 0 0
4748 1 52.855003100000005 201.798347989511 1.04689075 0 0 0
4749 1 51.150003000000005 204.751524220978 1.04689075 0 0 0
4750 2 52.855020150001 205.735867079022 1.04689075 0 0 0
4751 2 54.560003200000004 202.782749910489 1.04689075 0 0 0
4752 2 56.265020350001 193.923280279022 1.04689075 0 0 0
4753 2 54.560003200000004 196.87645651048902 1.04689075 0 0 0
4754 2 52.855020150001 199.829603210489 1.04689075 0 0 0
4755 2 51.150003000000005 202.782749910489 1.04689075 0 0 0
4756 1 66.49498684999901 184.079467789511 1.04689075 0 0 0
4757 1 64.789986749999 187.032644020978 1.04689075 0 0 0
4758 1 63.084986649999 189.985761189511 1.04689075 0 0 0
4759 1 66.49498684999901 189.985761189511 1.04689075 0 0 0
4760 2 66.4950039 182.11069347902202 1.04689075 0 0 0
4761 2 64.790020850001 185.063840179022 1.04689075 0 0 0
4762 2 63.08502075000101 188.01701641048902 1.04689075 0 0 0
4763 2 61.380020650001 190.97013357902202 1.04689075 0 0 0
4764 2 66.4950039 188.01701641048902 1.04689075 0 0 0
4765 2 64.790020850001 190.97013357902202 1.04689075 0 0 0
4766 1 61.3800036 192.93893742097802 1.04689075 0 0 0
4767 1 59.674986449999004 195.89205458951102 1.04689075 0 0 0
4768 1 57.9700034 198.845201289511 1.04689075 0 0 0
4769 1 56.264986249999005 201.798347989511 1.04689075 0 0 0
4770 1 54.559986149999006 204.751524220978 1.04689075 0 0 0
4771 1 64.789986749999 192.93893742097802 1.04689075 0 0 0
4772 1 63.084986649999 195.89205458951102 1.04689075 0 0 0
4773 1 61.3800036 198.845201289511 1.04689075 0 0 0
4774 1 59.674986449999004 201.798347989511 1.04689075 0 0 0
4775 1 57.9700034 204.751524220978 1.04689075 0 0 0
4776 1 66.49498684999901 195.89205458951102 1.04689075 0 0 0
4777 1 64.789986749999 198.845201289511 1.04689075 0 0 0
4778 1 63.084986649999 201.798347989511 1.04689075 0 0 0
4779 1 61.3800036 204.751524220978 1.04689075 0 0 0
4780 1 66.49498684999901 201.798347989511 1.04689075 0 0 0
4781 1 64.789986749999 204.751524220978 1.04689075 0 0 0
4782 2 59.6750035 193.923280279022 1.04689075 0 0 0
4783 2 57.9700034 196.87645651048902 1.04689075 0 0 0
4784 2 56.265020350001 199.829603210489 1.04689075 0 0 0
5337 1 35.8050021 207.704670920978 1.04689075 0 0 0
5338 1 34.100002 210.657788089511 1.04689075 0 0 0
5339 1 39.214985249999 207.704670920978 1.04689075 0 0 0
5340 1 37.509985149999004 210.657788089511 1.04689075 0 0 0
5341 1 35.8050021 213.610934789511 1.04689075 0 0 0
5342 1 34.100002 216.564111020978 1.04689075 0 0 0
5343 1 42.624985449999 207.704670920978 1.04689075 0 0 0
5344 1 40.9200024 210.657788089511 1.04689075 0 0 0
5345 1 39.214985249999 213.610934789511 1.04689075 0 0 0
5346 1 37.509985149999004 216.564111020978 1.04689075 0 0 0
5347 1 35.8050021 219.517228189511 1.04689075 0 0 0
5348 1 46.034985649999 207.704670920978 1.04689075 0 0 0
5349 1 44.3300026 210.657788089511 1.04689075 0 0 0
5350 1 42.624985449999 213.610934789511 1.04689075 0 0 0
5351 1 40.9200024 216.564111020978 1.04689075 0 0 0
5352 1 39.214985249999 219.517228189511 1.04689075 0 0 0
5353 1 49.444985849999 207.704670920978 1.04689075 0 0 0
5354 1 47.73998574999901 210.657788089511 1.04689075 0 0 0
5355 1 46.034985649999 213.610934789511 1.04689075 0 0 0
5356 1 44.3300026 216.564111020978 1.04689075 0 0 0
5357 1 42.624985449999 219.517228189511 1.04689075 0 0 0
5358 2 34.100002 208.689043310489 1.04689075 0 0 0
5359 2 37.5100022 208.689043310489 1.04689075 0 0 0
5360 2 35.805019150001 211.642160479022 1.04689075 0 0 0
5361 2 34.100002 214.595307179022 1.04689075 0 0 0
5362 2 40.9200024 208.689043310489 1.04689075 0 0 0
5363 2 39.215019350001 211.642160479022 1.04689075 0 0 0
5364 2 37.5100022 214.595307179022 1.04689075 0 0 0
5365 2 35.805019150001 217.548483410489 1.04689075 0 0 0
5366 2 34.100002 220.501600579022 1.04689075 0 0 0
5367 2 44.330019650001006 208.689043310489 1.04689075 0 0 0
5368 2 42.62500250000001 211.642160479022 1.04689075 0 0 0
5369 2 40.9200024 214.595307179022 1.04689075 0 0 0
5370 2 39.215019350001 217.548483410489 1.04689075 0 0 0
5371 2 37.5100022 220.501600579022 1.04689075 0 0 0
5372 2 47.740019850001005 208.689043310489 1.04689075 0 0 0
5373 2 46.035019750001005 211.642160479022 1.04689075 0 0 0
5374 2 44.330019650001006 214.595307179022 1.04689075 0 0 0
5375 2 42.62500250000001 217.548483410489 1.04689075 0 0 0
5376 2 40.9200024 220.501600579022 1.04689075 0 0 0
5377 1 34.100002 222.470404420978 1.04689075 0 0 0
5378 1 37.509985149999004 222.470404420978 1.04689075 0 0 0
5379 1 35.8050021 225.423521589511 1.04689075 0 0 0
5380 1 34.100002 228.376668289511 1.04689075 0 0 0
5381 1 40.9200024 222.470404420978 1.04689075 0 0 0
5382 1 39.214985249999 225.423521589511 1.04689075 0 0 0
5383 1 37.509985149999004 228.376668289511 1.04689075 0 0 0
5384 1 35.8050021 231.329814989511 1.04689075 0 0 0
5385 1 34.100002 234.282991220978 1.04689075 0 0 0
5386 2 35.805019150001 223.454747279022 1.04689075 0 0 0
5387 2 34.100002 226.407923510489 1.04689075 0 0 0
5388 2 39.215019350001 223.454747279022 1.04689075 0 0 0
5389 2 37.5100022 226.407923510489 1.04689075 0 0 0
5390 2 35.805019150001 229.361070210489 1.04689075 0 0 0
5391 2 34.100002 232.314216910489 1.04689075 0 0 0
5392 1 49.444985849999 213.610934789511 1.04689075 0 0 0
5393 1 47.73998574999901 216.564111020978 1.04689075 0 0 0
5394 1 46.034985649999 219.517228189511 1.04689075 0 0 0
5395 2 66.4950039 235.267334079022 1.04689075 0 0 0
5396 2 49.445002900000006 211.642160479022 1.04689075 0 0 0
5397 2 47.740019850001005 214.595307179022 1.04689075 0 0 0
5398 2 46.035019750001005 217.548483410489 1.04689075 0 0 0
5399 2 44.330019650001006 220.501600579022 1.04689075 0 0 0
5400 2 63.08502075000101 235.267334079022 1.04689075 0 0 0
5401 2 64.790020850001 232.314216910489 1.04689075 0 0 0
5402 1 44.3300026 222.470404420978 1.04689075 0 0 0
5403 1 42.624985449999 225.423521589511 1.04689075 0 0 0
5404 1 40.9200024 228.376668289511 1.04689075 0 0 0
5405 1 39.214985249999 231.329814989511 1.04689075 0 0 0
5406 1 37.509985149999004 234.282991220978 1.04689075 0 0 0
5407 2 66.4950039 229.361070210489 1.04689075 0 0 0
5408 1 46.034985649999 225.423521589511 1.04689075 0 0 0
5409 1 44.3300026 228.376668289511 1.04689075 0 0 0
5410 1 42.624985449999 231.329814989511 1.04689075 0 0 0
5411 1 40.9200024 234.282991220978 1.04689075 0 0 0
5412 2 59.6750035 235.267334079022 1.04689075 0 0 0
5413 1 47.73998574999901 228.376668289511 1.04689075 0 0 0
5414 1 46.034985649999 231.329814989511 1.04689075 0 0 0
5415 1 44.3300026 234.282991220978 1.04689075 0 0 0
5416 1 49.444985849999 231.329814989511 1.04689075 0 0 0
5417 1 47.73998574999901 234.282991220978 1.04689075 0 0 0
5418 2 42.62500250000001 223.454747279022 1.04689075 0 0 0
5419 2 40.9200024 226.407923510489 1.04689075 0 0 0
5420 2 39.215019350001 229.361070210489 1.04689075 0 0 0
5421 2 37.5100022 232.314216910489 1.04689075 0 0 0
5422 2 35.805019150001 235.267334079022 1.04689075 0 0 0
5423 2 46.035019750001005 223.454747279022 1.04689075 0 0 0
5424 2 44.330019650001006 226.407923510489 1.04689075 0 0 0
5425 2 42.62500250000001 229.361070210489 1.04689075 0 0 0
5426 2 40.9200024 232.314216910489 1.04689075 0 0 0
5427 2 39.215019350001 235.267334079022 1.04689075 0 0 0
5428 2 61.380020650001 232.314216910489 1.04689075 0 0 0
5429 2 47.740019850001005 226.407923510489 1.04689075 0 0 0
5430 2 46.035019750001005 229.361070210489 1.04689075 0 0 0
5431 2 44.330019650001006 232.314216910489 1.04689075 0 0 0
5432 2 42.62500250000001 235.267334079022 1.04689075 0 0 0
5433 2 49.445002900000006 229.361070210489 1.04689075 0 0 0
5434 2 47.740019850001005 232.314216910489 1.04689075 0 0 0
5435 2 46.035019750001005 235.267334079022 1.04689075 0 0 0
5436 2 49.445002900000006 235.267334079022 1.04689075 0 0 0
5437 1 52.855003100000005 207.704670920978 1.04689075 0 0 0
5438 1 51.150003000000005 210.657788089511 1.04689075 0 0 0
5439 1 56.264986249999005 207.704670920978 1.04689075 0 0 0
5440 1 54.559986149999006 210.657788089511 1.04689075 0 0 0
5441 1 52.855003100000005 213.610934789511 1.04689075 0 0 0
5442 2 63.08502075000101 229.361070210489 1.04689075 0 0 0
5443 1 59.674986449999004 207.704670920978 1.04689075 0 0 0
5444 1 57.9700034 210.657788089511 1.04689075 0 0 0
5445 1 56.264986249999005 213.610934789511 1.04689075 0 0 0
5446 1 54.559986149999006 216.564111020978 1.04689075 0 0 0
5447 2 64.790020850001 226.407923510489 1.04689075 0 0 0
5448 1 63.084986649999 207.704670920978 1.04689075 0 0 0
5449 1 61.3800036 210.657788089511 1.04689075 0 0 0
5450 1 59.674986449999004 213.610934789511 1.04689075 0 0 0
5451 1 57.9700034 216.564111020978 1.04689075 0 0 0
5452 1 56.264986249999005 219.517228189511 1.04689075 0 0 0
5453 1 66.49498684999901 207.704670920978 1.04689075 0 0 0
5454 1 64.789986749999 210.657788089511 1.04689075 0 0 0
5455 1 63.084986649999 213.610934789511 1.04689075 0 0 0
5456 1 61.3800036 216.564111020978 1.04689075 0 0 0
5457 1 59.674986449999004 219.517228189511 1.04689075 0 0 0
5458 2 51.150003000000005 208.689043310489 1.04689075 0 0 0
5459 2 54.560003200000004 208.689043310489 1.04689075 0 0 0
5460 2 52.855020150001 211.642160479022 1.04689075 0 0 0
5461 2 51.150003000000005 214.595307179022 1.04689075 0 0 0
5462 2 57.9700034 208.689043310489 1.04689075 0 0 0
5463 2 56.265020350001 211.642160479022 1.04689075 0 0 0
5464 2 54.560003200000004 214.595307179022 1.04689075 0 0 0
5465 2 66.4950039 223.454747279022 1.04689075 0 0 0
5466 2 56.265020350001 235.267334079022 1.04689075 0 0 0
5467 2 61.380020650001 208.689043310489 1.04689075 0 0 0
5468 2 59.6750035 211.642160479022 1.04689075 0 0 0
5469 2 57.9700034 214.595307179022 1.04689075 0 0 0
5470 2 56.265020350001 217.548483410489 1.04689075 0 0 0
5471 2 57.9700034 232.314216910489 1.04689075 0 0 0
5472 2 64.790020850001 208.689043310489 1.04689075 0 0 0
5473 2 63.08502075000101 211.642160479022 1.04689075 0 0 0
5474 2 61.380020650001 214.595307179022 1.04689075 0 0 0
5475 2 59.6750035 217.548483410489 1.04689075 0 0 0
5476 2 57.9700034 220.501600579022 1.04689075 0 0 0
5477 2 59.6750035 229.361070210489 1.04689075 0 0 0
5478 2 61.380020650001 226.407923510489 1.04689075 0 0 0
5479 2 63.08502075000101 223.454747279022 1.04689075 0 0 0
5480 1 51.150003000000005 228.376668289511 1.04689075 0 0 0
5481 1 57.9700034 222.470404420978 1.04689075 0 0 0
5482 1 56.264986249999005 225.423521589511 1.04689075 0 0 0
5483 1 54.559986149999006 228.376668289511 1.04689075 0 0 0
5484 1 52.855003100000005 231.329814989511 1.04689075 0 0 0
5485 1 51.150003000000005 234.282991220978 1.04689075 0 0 0
5486 2 52.855020150001 235.267334079022 1.04689075 0 0 0
5487 2 54.560003200000004 232.314216910489 1.04689075 0 0 0
5488 2 56.265020350001 223.454747279022 1.04689075 0 0 0
5489 2 54.560003200000004 226.407923510489 1.04689075 0 0 0
5490 2 52.855020150001 229.361070210489 1.04689075 0 0 0
5491 2 51.150003000000005 232.314216910489 1.04689075 0 0 0
5492 1 66.49498684999901 213.610934789511 1.04689075 0 0 0
5493 1 64.789986749999 216.564111020978 1.04689075 0 0 0
5494 1 63.084986649999 219.517228189511 1.04689075 0 0 0
5495 1 66.49498684999901 219.517228189511 1.04689075 0 0 0
5496 2 66.4950039 211.642160479022 1.04689075 0 0 0
5497 2 64.790020850001 214.595307179022 1.04689075 0 0 0
5498 2 63.08502075000101 217.548483410489 1.04689075 0 0 0
5499 2 61.380020650001 220.501600579022 1.04689075 0 0 0
5500 2 66.4950039 217.548483410489 1.04689075 0 0 0
5501 2 64.790020850001 220.501600579022 1.04689075 0 0 0
5502 1 61.3800036 222.470404420978 1.04689075 0 0 0
5503 1 59.674986449999004 225.423521589511 1.04689075 0 0 0
5504 1 57.9700034 228.376668289511 1.04689075 0 0 0
5505 1 56.264986249999005 231.329814989511 1.04689075 0 0 0
5506 1 54.559986149999006 234.282991220978 1.04689075 0 0 0
5507 1 64.789986749999 222.470404420978 1.04689075 0 0 0
5508 1 63.084986649999 225.423521589511 1.04689075 0 0 0
5509 1 61.3800036 228.376668289511 1.04689075 0 0 0
5510 1 59.674986449999004 231.329814989511 1.04689075 0 0 0
5511 1 57.9700034 234.282991220978 1.04689075 0 0 0
5512 1 66.49498684999901 225.423521589511 1.04689075 0 0 0
5513 1 64.789986749999 228.376668289511 1.04689075 0 0 0
5514 1 63.084986649999 231.329814989511 1.04689075 0 0 0
5515 1 61.3800036 234.282991220978 1.04689075 0 0 0
5516 1 66.49498684999901 231.329814989511 1.04689075 0 0 0
5517 1 64.789986749999 234.282991220978 1.04689075 0 0 0
5518 2 59.6750035 223.454747279022 1.04689075 0 0 0
5519 2 57.9700034 226.407923510489 1.04689075 0 0 0
5520 2 56.265020350001 229.361070210489 1.04689075 0 0 0
6073 1 35.8050021 237.236137920978 1.04689075 0 0 0
6074 1 34.100002 240.189255089511 1.04689075 0 0 0
6075 1 39.214985249999 237.236137920978 1.04689075 0 0 0
6076 1 37.509985149999004 240.189255089511 1.04689075 0 0 0
6077 1 35.8050021 243.14240178951098 1.04689075 0 0 0
6078 1 34.100002 246.095578020978 1.04689075 0 0 0
6079 1 42.624985449999 237.236137920978 1.04689075 0 0 0
6080 1 40.9200024 240.189255089511 1.04689075 0 0 0
6081 1 39.214985249999 243.14240178951098 1.04689075 0 0 0
6082 1 37.509985149999004 246.095578020978 1.04689075 0 0 0
6083 1 35.8050021 249.048695189511 1.04689075 0 0 0
6084 1 46.034985649999 237.236137920978 1.04689075 0 0 0
6085 1 44.3300026 240.189255089511 1.04689075 0 0 0
6086 1 42.624985449999 243.14240178951098 1.04689075 0 0 0
6087 1 40.9200024 246.095578020978 1.04689075 0 0 0
6088 1 39.214985249999 249.048695189511 1.04689075 0 0 0
6089 1 49.444985849999 237.236137920978 1.04689075 0 0 0
6090 1 47.73998574999901 240.189255089511 1.04689075 0 0 0
6091 1 46.034985649999 243.14240178951098 1.04689075 0 0 0
6092 1 44.3300026 246.095578020978 1.04689075 0 0 0
6093 1 42.624985449999 249.048695189511 1.04689075 0 0 0
6094 2 34.100002 238.220510310489 1.04689075 0 0 0
6095 2 37.5100022 238.220510310489 1.04689075 0 0 0
6096 2 35.805019150001 241.173627479022 1.04689075 0 0 0
6097 2 34.100002 244.126774179022 1.04689075 0 0 0
6098 2 40.9200024 238.220510310489 1.04689075 0 0 0
6099 2 39.215019350001 241.173627479022 1.04689075 0 0 0
6100 2 37.5100022 244.126774179022 1.04689075 0 0 0
6101 2 35.805019150001 247.079950410489 1.04689075 0 0 0
6102 2 34.100002 250.033067579022 1.04689075 0 0 0
6103 2 44.330019650001006 238.220510310489 1.04689075 0 0 0
6104 2 42.62500250000001 241.173627479022 1.04689075 0 0 0
6105 2 40.9200024 244.126774179022 1.04689075 0 0 0
6106 2 39.215019350001 247.079950410489 1.04689075 0 0 0
6107 2 37.5100022 250.033067579022 1.04689075 0 0 0
6108 2 47.740019850001005 238.220510310489 1.04689075 0 0 0
6109 2 46.035019750001005 241.173627479022 1.04689075 0 0 0
6110 2 44.330019650001006 244.126774179022 1.04689075 0 0 0
6111 2 42.62500250000001 247.079950410489 1.04689075 0 0 0
6112 2 40.9200024 250.033067579022 1.04689075 0 0 0
6113 1 34.100002 252.001871420978 1.04689075 0 0 0
6114 1 37.509985149999004 252.001871420978 1.04689075 0 0 0
6115 1 35.8050021 254.954988589511 1.04689075 0 0 0
6116 1 34.100002 257.908135289511 1.04689075 0 0 0
6117 1 40.9200024 252.001871420978 1.04689075 0 0 0
6118 1 39.214985249999 254.954988589511 1.04689075 0 0 0
6119 1 37.509985149999004 257.908135289511 1.04689075 0 0 0
6120 1 35.8050021 260.861281989511 1.04689075 0 0 0
6121 1 34.100002 263.814458220978 1.04689075 0 0 0
6122 2 35.805019150001 252.986214279022 1.04689075 0 0 0
6123 2 34.100002 255.939390510489 1.04689075 0 0 0
6124 2 39.215019350001 252.986214279022 1.04689075 0 0 0
6125 2 37.5100022 255.939390510489 1.04689075 0 0 0
6126 2 35.805019150001 258.89253721048897 1.04689075 0 0 0
6127 2 34.100002 261.845683910489 1.04689075 0 0 0
6128 1 49.444985849999 243.14240178951098 1.04689075 0 0 0
6129 1 47.73998574999901 246.095578020978 1.04689075 0 0 0
6130 1 46.034985649999 249.048695189511 1.04689075 0 0 0
6131 2 66.4950039 264.798801079022 1.04689075 0 0 0
6132 2 49.445002900000006 241.173627479022 1.04689075 0 0 0
6133 2 47.740019850001005 244.126774179022 1.04689075 0 0 0
6134 2 46.035019750001005 247.079950410489 1.04689075 0 0 0
6135 2 44.330019650001006 250.033067579022 1.04689075 0 0 0
6136 2 63.08502075000101 264.798801079022 1.04689075 0 0 0
6137 2 64.790020850001 261.845683910489 1.04689075 0 0 0
6138 1 44.3300026 252.001871420978 1.04689075 0 0 0
6139 1 42.624985449999 254.954988589511 1.04689075 0 0 0
6140 1 40.9200024 257.908135289511 1.04689075 0 0 0
6141 1 39.214985249999 260.861281989511 1.04689075 0 0 0
6142 1 37.509985149999004 263.814458220978 1.04689075 0 0 0
6143 2 66.4950039 258.89253721048897 1.04689075 0 0 0
6144 1 46.034985649999 254.954988589511 1.04689075 0 0 0
6145 1 44.3300026 257.908135289511 1.04689075 0 0 0
6146 1 42.624985449999 260.861281989511 1.04689075 0 0 0
6147 1 40.9200024 263.814458220978 1.04689075 0 0 0
6148 2 59.6750035 264.798801079022 1.04689075 0 0 0
6149 1 47.73998574999901 257.908135289511 1.04689075 0 0 0
6150 1 46.034985649999 260.861281989511 1.04689075 0 0 0
6151 1 44.3300026 263.814458220978 1.04689075 0 0 0
6152 1 49.444985849999 260.861281989511 1.04689075 0 0 0
6153 1 47.73998574999901 263.814458220978 1.04689075 0 0 0
6154 2 42.62500250000001 252.986214279022 1.04689075 0 0 0
6155 2 40.9200024 255.939390510489 1.04689075 0 0 0
6156 2 39.215019350001 258.89253721048897 1.04689075 0 0 0
6157 2 37.5100022 261.845683910489 1.04689075 0 0 0
6158 2 35.805019150001 264.798801079022 1.04689075 0 0 0
6159 2 46.035019750001005 252.986214279022 1.04689075 0 0 0
6160 2 44.330019650001006 255.939390510489 1.04689075 0 0 0
6161 2 42.62500250000001 258.89253721048897 1.04689075 0 0 0
6162 2 40.9200024 261.845683910489 1.04689075 0 0 0
6163 2 39.215019350001 264.798801079022 1.04689075 0 0 0
6164 2 61.380020650001 261.845683910489 1.04689075 0 0 0
6165 2 47.740019850001005 255.939390510489 1.04689075 0 0 0
6166 2 46.035019750001005 258.89253721048897 1.04689075 0 0 0
6167 2 44.330019650001006 261.845683910489 1.04689075 0 0 0
6168 2 42.62500250000001 264.798801079022 1.04689075 0 0 0
6169 2 49.445002900000006 258.89253721048897 1.04689075 0 0 0
6170 2 47.740019850001005 261.845683910489 1.04689075 0 0 0
6171 2 46.035019750001005 264.798801079022 1.04689075 0 0 0
6172 2 49.445002900000006 264.798801079022 1.04689075 0 0 0
6173 1 52.855003100000005 237.236137920978 1.04689075 0 0 0
6174 1 51.150003000000005 240.189255089511 1.04689075 0 0 0
6175 1 56.264986249999005 237.236137920978 1.04689075 0 0 0
6176 1 54.559986149999006 240.189255089511 1.04689075 0 0 0
6177 1 52.855003100000005 243.14240178951098 1.04689075 0 0 0
6178 2 63.08502075000101 258.89253721048897 1.04689075 0 0 0
6179 1 59.674986449999004 237.236137920978 1.04689075 0 0 0
6180 1 57.9700034 240.189255089511 1.04689075 0 0 0
6181 1 56.264986249999005 243.14240178951098 1.04689075 0 0 0
6182 1 54.559986149999006 246.095578020978 1.04689075 0 0 0
6183 2 64.790020850001 255.939390510489 1.04689075 0 0 0
6184 1 63.084986649999 237.236137920978 1.04689075 0 0 0
6185 1 61.3800036 240.189255089511 1.04689075 0 0 0
6186 1 59.674986449999004 243.14240178951098 1.04689075 0 0 0
6187 1 57.9700034 246.095578020978 1.04689075 0 0 0
6188 1 56.264986249999005 249.048695189511 1.04689075 0 0 0
6189 1 66.49498684999901 237.236137920978 1.04689075 0 0 0
6190 1 64.789986749999 240.189255089511 1.04689075 0 0 0
6191 1 63.084986649999 243.14240178951098 1.04689075 0 0 0
6192 1 61.3800036 246.095578020978 1.04689075 0 0 0
6193 1 59.674986449999004 249.048695189511 1.04689075 0 0 0
6194 2 51.150003000000005 238.220510310489 1.04689075 0 0 0
6195 2 54.560003200000004 238.220510310489 1.04689075 0 0 0
6196 2 52.855020150001 241.173627479022 1.04689075 0 0 0
6197 2 51.150003000000005 244.126774179022 1.04689075 0 0 0
6198 2 57.9700034 238.220510310489 1.04689075 0 0 0
6199 2 56.265020350001 241.173627479022 1.04689075 0 0 0
6200 2 54.560003200000004 244.126774179022 1.04689075 0 0 0
6201 2 66.4950039 252.986214279022 1.04689075 0 0 0
6202 2 56.265020350001 264.798801079022 1.04689075 0 0 0
6203 2 61.380020650001 238.220510310489 1.04689075 0 0 0
6204 2 59.6750035 241.173627479022 1.04689075 0 0 0
6205 2 57.9700034 244.126774179022 1.04689075 0 0 0
6206 2 56.265020350001 247.079950410489 1.04689075 0 0 0
6207 2 57.9700034 261.845683910489 1.04689075 0 0 0
6208 2 64.790020850001 238.220510310489 1.04689075 0 0 0
6209 2 63.08502075000101 241.173627479022 1.04689075 0 0 0
6210 2 61.380020650001 244.126774179022 1.04689075 0 0 0
6211 2 59.6750035 247.079950410489 1.04689075 0 0 0
6212 2 57.9700034 250.033067579022 1.04689075 0 0 0
6213 2 59.6750035 258.89253721048897 1.04689075 0 0 0
6214 2 61.380020650001 255.939390510489 1.04689075 0 0 0
6215 2 63.08502075000101 252.986214279022 1.04689075 0 0 0
6216 1 51.150003000000005 257.908135289511 1.04689075 0 0 0
6217 1 57.9700034 252.001871420978 1.04689075 0 0 0
6218 1 56.264986249999005 254.954988589511 1.04689075 0 0 0
6219 1 54.559986149999006 257.908135289511 1.04689075 0 0 0
6220 1 52.855003100000005 260.861281989511 1.04689075 0 0 0
6221 1 51.150003000000005 263.814458220978 1.04689075 0 0 0
6222 2 52.855020150001 264.798801079022 1.04689075 0 0 0
6223 2 54.560003200000004 261.845683910489 1.04689075 0 0 0
6224 2 56.265020350001 252.986214279022 1.04689075 0 0 0
6225 2 54.560003200000004 255.939390510489 1.04689075 0 0 0
6226 2 52.855020150001 258.89253721048897 1.04689075 0 0 0
6227 2 51.150003000000005 261.845683910489 1.04689075 0 0 0
6228 1 66.49498684999901 243.14240178951098 1.04689075 0 0 0
6229 1 64.789986749999 246.095578020978 1.04689075 0 0 0
6230 1 63.084986649999 249.048695189511 1.04689075 0 0 0
6231 1 66.49498684999901 249.048695189511 1.04689075 0 0 0
6232 2 66.4950039 241.173627479022 1.04689075 0 0 0
6233 2 64.790020850001 244.126774179022 1.04689075 0 0 0
6234 2 63.08502075000101 247.079950410489 1.04689075 0 0 0
6235 2 61.380020650001 250.033067579022 1.04689075 0 0 0
6236 2 66.4950039 247.079950410489 1.04689075 0 0 0
6237 2 64.790020850001 250.033067579022 1.04689075 0 0 0
6238 1 61.3800036 252.001871420978 1.04689075 0 0 0
6239 1 59.674986449999004 254.954988589511 1.04689075 0 0 0
6240 1 57.9700034 257.908135289511 1.04689075 0 0 0
6241 1 56.264986249999005 260.861281989511 1.04689075 0 0 0
6242 1 54.559986149999006 263.814458220978 1.04689075 0 0 0
6243 1 64.789986749999 252.001871420978 1.04689075 0 0 0
6244 1 63.084986649999 254.954988589511 1.04689075 0 0 0
6245 1 61.3800036 257.908135289511 1.04689075 0 0 0
6246 1 59.674986449999004 260.861281989511 1.04689075 0 0 0
6247 1 57.9700034 263.814458220978 1.04689075 0 0 0
6248 1 66.49498684999901 254.954988589511 1.04689075 0 0 0
6249 1 64.789986749999 257.908135289511 1.04689075 0 0 0
6250 1 63.084986649999 260.861281989511 1.04689075 0 0 0
6251 1 61.3800036 263.814458220978 1.04689075 0 0 0
6252 1 66.49498684999901 260.861281989511 1.04689075 0 0 0
6253 1 64.789986749999 263.814458220978 1.04689075 0 0 0
6254 2 59.6750035 252.986214279022 1.04689075 0 0 0
6255 2 57.9700034 255.939390510489 1.04689075 0 0 0
6256 2 56.265020350001 258.89253721048897 1.04689075 0 0 0
6809 1 35.8050021 266.767604920978 1.04689075 0 0 0
6810 1 34.100002 269.720722089511 1.04689075 0 0 0
6811 1 39.214985249999 266.767604920978 1.04689075 0 0 0
6812 1 37.509985149999004 269.720722089511 1.04689075 0 0 0
6813 1 35.8050021 272.673868789511 1.04689075 0 0 0
6814 1 34.100002 275.627045020978 1.04689075 0 0 0
6815 1 42.624985449999 266.767604920978 1.04689075 0 0 0
6816 1 40.9200024 269.720722089511 1.04689075 0 0 0
6817 1 39.214985249999 272.673868789511 1.04689075 0 0 0
6818 1 37.509985149999004 275.627045020978 1.04689075 0 0 0
6819 1 35.8050021 278.58016218951104 1.04689075 0 0 0
6820 1 46.034985649999 266.767604920978 1.04689075 0 0 0
6821 1 44.3300026 269.720722089511 1.04689075 0 0 0
6822 1 42.624985449999 272.673868789511 1.04689075 0 0 0
6823 1 40.9200024 275.627045020978 1.04689075 0 0 0
6824 1 39.214985249999 278.58016218951104 1.04689075 0 0 0
6825 1 49.444985849999 266.767604920978 1.04689075 0 0 0
6826 1 47.73998574999901 269.720722089511 1.04689075 0 0 0
6827 1 46.034985649999 272.673868789511 1.04689075 0 0 0
6828 1 44.3300026 275.627045020978 1.04689075 0 0 0
6829 1 42.624985449999 278.58016218951104 1.04689075 0 0 0
6830 2 34.100002 267.751977310489 1.04689075 0 0 0
6831 2 37.5100022 267.751977310489 1.04689075 0 0 0
6832 2 35.805019150001 270.705094479022 1.04689075 0 0 0
6833 2 34.100002 273.658241179022 1.04689075 0 0 0
6834 2 40.9200024 267.751977310489 1.04689075 0 0 0
6835 2 39.215019350001 270.705094479022 1.04689075 0 0 0
6836 2 37.5100022 273.658241179022 1.04689075 0 0 0
6837 2 35.805019150001 276.611417410489 1.04689075 0 0 0
6838 2 34.100002 279.564534579022 1.04689075 0 0 0
6839 2 44.330019650001006 267.751977310489 1.04689075 0 0 0
6840 2 42.62500250000001 270.705094479022 1.04689075 0 0 0
6841 2 40.9200024 273.658241179022 1.04689075 0 0 0
6842 2 39.215019350001 276.611417410489 1.04689075 0 0 0
6843 2 37.5100022 279.564534579022 1.04689075 0 0 0
6844 2 47.740019850001005 267.751977310489 1.04689075 0 0 0
6845 2 46.035019750001005 270.705094479022 1.04689075 0 0 0
6846 2 44.330019650001006 273.658241179022 1.04689075 0 0 0
6847 2 42.62500250000001 276.611417410489 1.04689075 0 0 0
6848 2 40.9200024 279.564534579022 1.04689075 0 0 0
6849 1 34.100002 281.533338420978 1.04689075 0 0 0
6850 1 37.509985149999004 281.533338420978 1.04689075 0 0 0
6851 1 35.8050021 284.486455589511 1.04689075 0 0 0
6852 1 34.100002 287.439602289511 1.04689075 0 0 0
6853 1 40.9200024 281.533338420978 1.04689075 0 0 0
6854 1 39.214985249999 284.486455589511 1.04689075 0 0 0
6855 1 37.509985149999004 287.439602289511 1.04689075 0 0 0
6856 1 35.8050021 290.392748989511 1.04689075 0 0 0
6857 1 34.100002 293.345925220978 1.04689075 0 0 0
6858 2 35.805019150001 282.517681279022 1.04689075 0 0 0
6859 2 34.100002 285.470857510489 1.04689075 0 0 0
6860 2 39.215019350001 282.517681279022 1.04689075 0 0 0
6861 2 37.5100022 285.470857510489 1.04689075 0 0 0
6862 2 35.805019150001 288.424004210489 1.04689075 0 0 0
6863 2 34.100002 291.37715091048904 1.04689075 0 0 0
6864 1 49.444985849999 272.673868789511 1.04689075 0 0 0
6865 1 47.73998574999901 275.627045020978 1.04689075 0 0 0
6866 1 46.034985649999 278.58016218951104 1.04689075 0 0 0
6867 2 66.4950039 294.330268079022 1.04689075 0 0 0
6868 2 49.445002900000006 270.705094479022 1.04689075 0 0 0
6869 2 47.740019850001005 273.658241179022 1.04689075 0 0 0
6870 2 46.035019750001005 276.611417410489 1.04689075 0 0 0
6871 2 44.330019650001006 279.564534579022 1.04689075 0 0 0
6872 2 63.08502075000101 294.330268079022 1.04689075 0 0 0
6873 2 64.790020850001 291.37715091048904 1.04689075 0 0 0
6874 1 44.3300026 281.533338420978 1.04689075 0 0 0
6875 1 42.624985449999 284.486455589511 1.04689075 0 0 0
6876 1 40.9200024 287.439602289511 1.04689075 0 0 0
6877 1 39.214985249999 290.392748989511 1.04689075 0 0 0
6878 1 37.509985149999004 293.345925220978 1.04689075 0 0 0
6879 2 66.4950039 288.424004210489 1.04689075 0 0 0
6880 1 46.034985649999 284.486455589511 1.04689075 0 0 0
6881 1 44.3300026 287.439602289511 1.04689075 0 0 0
6882 1 42.624985449999 290.392748989511 1.04689075 0 0 0
6883 1 40.9200024 293.345925220978 1.04689075 0 0 0
6884 2 59.6750035 294.330268079022 1.04689075 0 0 0
6885 1 47.73998574999901 287.439602289511 1.04689075 0 0 0
6886 1 46.034985649999 290.392748989511 1.04689075 0 0 0
6887 1 44.3300026 293.345925220978 1.04689075 0 0 0
6888 1 49.444985849999 290.392748989511 1.04689075 0 0 0
6889 1 47.73998574999901 293.345925220978 1.04689075 0 0 0
6890 2 42.62500250000001 282.517681279022 1.04689075 0 0 0
6891 2 40.9200024 285.470857510489 1.04689075 0 0 0
6892 2 39.215019350001 288.424004210489 1.04689075 0 0 0
6893 2 37.5100022 291.37715091048904 1.04689075 0 0 0
6894 2 35.805019150001 294.330268079022 1.04689075 0 0 0
6895 2 46.035019750001005 282.517681279022 1.04689075 0 0 0
6896 2 44.330019650001006 285.470857510489 1.04689075 0 0 0
6897 2 42.62500250000001 288.424004210489 1.04689075 0 0 0
6898 2 40.9200024 291.37715091048904 1.04689075 0 0 0
6899 2 39.215019350001 294.330268079022 1.04689075 0 0 0
6900 2 61.380020650001 291.37715091048904 1.04689075 0 0 0
6901 2 47.740019850001005 285.470857510489 1.04689075 0 0 0
6902 2 46.035019750001005 288.424004210489 1.04689075 0 0 0
6903 2 44.330019650001006 291.37715091048904 1.04689075 0 0 0
6904 2 42.62500250000001 294.330268079022 1.04689075 0 0 0
6905 2 49.445002900000006 288.424004210489 1.04689075 0 0 0
6906 2 47.740019850001005 291.37715091048904 1.04689075 0 0 0
6907 2 46.035019750001005 294.330268079022 1.04689075 0 0 0
6908 2 49.445002900000006 294.330268079022 1.04689075 0 0 0
6909 1 52.855003100000005 266.767604920978 1.04689075 0 0 0
6910 1 51.150003000000005 269.720722089511 1.04689075 0 0 0
6911 1 56.264986249999005 266.767604920978 1.04689075 0 0 0
6912 1 54.559986149999006 269.720722089511 1.04689075 0 0 0
6913 1 52.855003100000005 272.673868789511 1.04689075 0 0 0
6914 2 63.08502075000101 288.424004210489 1.04689075 0 0 0
6915 1 59.674986449999004 266.767604920978 1.04689075 0 0 0
6916 1 57.9700034 269.720722089511 1.04689075 0 0 0
6917 1 56.264986249999005 272.673868789511 1.04689075 0 0 0
6918 1 54.559986149999006 275.627045020978 1.04689075 0 0 0
6919 2 64.790020850001 285.470857510489 1.04689075 0 0 0
6920 1 63.084986649999 266.767604920978 1.04689075 0 0 0
6921 1 61.3800036 269.720722089511 1.04689075 0 0 0
6922 1 59.674986449999004 272.673868789511 1.04689075 0 0 0
6923 1 57.9700034 275.627045020978 1.04689075 0 0 0
6924 1 56.264986249999005 278.58016218951104 1.04689075 0 0 0
6925 1 66.49498684999901 266.767604920978 1.04689075 0 0 0
6926 1 64.789986749999 269.720722089511 1.04689075 0 0 0
6927 1 63.084986649999 272.673868789511 1.04689075 0 0 0
6928 1 61.3800036 275.627045020978 1.04689075 0 0 0
6929 1 59.674986449999004 278.58016218951104 1.04689075 0 0 0
6930 2 51.150003000000005 267.751977310489 1.04689075 0 0 0
6931 2 54.560003200000004 267.751977310489 1.04689075 0 0 0
6932 2 52.855020150001 270.705094479022 1.04689075 0 0 0
6933 2 51.150003000000005 273.658241179022 1.04689075 0 0 0
6934 2 57.9700034 267.751977310489 1.04689075 0 0 0
6935 2 56.265020350001 270.705094479022 1.04689075 0 0 0
6936 2 54.560003200000004 273.658241179022 1.04689075 0 0 0
6937 2 66.4950039 282.517681279022 1.04689075 0 0 0
6938 2 56.265020350001 294.330268079022 1.04689075 0 0 0
6939 2 61.380020650001 267.751977310489 1.04689075 0 0 0
6940 2 59.6750035 270.705094479022 1.04689075 0 0 0
6941 2 57.9700034 273.658241179022 1.04689075 0 0 0
6942 2 56.265020350001 276.611417410489 1.04689075 0 0 0
6943 2 57.9700034 291.37715091048904 1.04689075 0 0 0
6944 2 64.790020850001 267.751977310489 1.04689075 0 0 0
6945 2 63.08502075000101 270.705094479022 1.04689075 0 0 0
6946 2 61.380020650001 273.658241179022 1.04689075 0 0 0
6947 2 59.6750035 276.611417410489 1.04689075 0 0 0
6948 2 57.9700034 279.564534579022 1.04689075 0 0 0
6949 2 59.6750035 288.424004210489 1.04689075 0 0 0
6950 2 61.380020650001 285.470857510489 1.04689075 0 0 0
6951 2 63.08502075000101 282.517681279022 1.04689075 0 0 0
6952 1 51.150003000000005 287.439602289511 1.04689075 0 0 0
6953 1 57.9700034 281.533338420978 1.04689075 0 0 0
6954 1 56.264986249999005 284.486455589511 1.04689075 0 0 0
6955 1 54.559986149999006 287.439602289511 1.04689075 0 0 0
6956 1 52.855003100000005 290.392748989511 1.04689075 0 0 0
6957 1 51.150003000000005 293.345925220978 1.04689075 0 0 0
6958 2 52.855020150001 294.330268079022 1.04689075 0 0 0
6959 2 54.560003200000004 291.37715091048904 1.04689075 0 0 0
6960 2 56.265020350001 282.517681279022 1.04689075 0 0 0
6961 2 54.560003200000004 285.470857510489 1.04689075 0 0 0
6962 2 52.855020150001 288.424004210489 1.04689075 0 0 0
6963 2 51.150003000000005 291.37715091048904 1.04689075 0 0 0
6964 1 66.49498684999901 272.673868789511 1.04689075 0 0 0
6965 1 64.789986749999 275.627045020978 1.04689075 0 0 0
6966 1 63.084986649999 278.58016218951104 1.04689075 0 0 0
6967 1 66.49498684999901 278.58016218951104 1.04689075 0 0 0
6968 2 66.4950039 270.705094479022 1.04689075 0 0 0
6969 2 64.790020850001 273.658241179022 1.04689075 0 0 0
6970 2 63.08502075000101 276.611417410489 1.04689075 0 0 0
6971 2 61.380020650001 279.564534579022 1.04689075 0 0 0
6972 2 66.4950039 276.611417410489 1.04689075 0 0 0
6973 2 64.790020850001 279.564534579022 1.04689075 0 0 0
6974 1 61.3800036 281.533338420978 1.04689075 0 0 0
6975 1 59.674986449999004 284.486455589511 1.04689075 0 0 0
6976 1 57.9700034 287.439602289511 1.04689075 0 0 0
6977 1 56.264986249999005 290.392748989511 1.04689075 0 0 0
6978 1 54.559986149999006 293.345925220978 1.04689075 0 0 0
6979 1 64.789986749999 281.533338420978 1.04689075 0 0 0
6980 1 63.084986649999 284.486455589511 1.04689075 0 0 0
6981 1 61.3800036 287.439602289511 1.04689075 0 0 0
6982 1 59.674986449999004 290.392748989511 1.04689075 0 0 0
6983 1 57.9700034 293.345925220978 1.04689075 0 0 0
6984 1 66.49498684999901 284.486455589511 1.04689075 0 0 0
6985 1 64.789986749999 287.439602289511 1.04689075 0 0 0
6986 1 63.084986649999 290.392748989511 1.04689075 0 0 0
6987 1 61.3800036 293.345925220978 1.04689075 0 0 0
6988 1 66.49498684999901 290.392748989511 1.04689075 0 0 0
6989 1 64.789986749999 293.345925220978 1.04689075 0 0 0
6990 2 59.6750035 282.517681279022 1.04689075 0 0 0
6991 2 57.9700034 285.470857510489 1.04689075 0 0 0
6992 2 56.265020350001 288.424004210489 1.04689075 0 0 0
7545 1 35.8050021 296.29907192097795 1.04689075 0 0 0
7546 1 34.100002 299.252189089511 1.04689075 0 0 0
7547 1 39.214985249999 296.29907192097795 1.04689075 0 0 0
7548 1 37.509985149999004 299.252189089511 1.04689075 0 0 0
7549 1 35.8050021 302.20533578951097 1.04689075 0 0 0
7550 1 34.100002 305.158512020978 1.04689075 0 0 0
7551 1 42.624985449999 296.29907192097795 1.04689075 0 0 0
7552 1 40.9200024 299.252189089511 1.04689075 0 0 0
7553 1 39.214985249999 302.20533578951097 1.04689075 0 0 0
7554 1 37.509985149999004 305.158512020978 1.04689075 0 0 0
7555 1 35.8050021 308.11162918951095 1.04689075 0 0 0
7556 1 46.034985649999 296.29907192097795 1.04689075 0 0 0
7557 1 44.3300026 299.252189089511 1.04689075 0 0 0
7558 1 42.624985449999 302.20533578951097 1.04689075 0 0 0
7559 1 40.9200024 305.158512020978 1.04689075 0 0 0
7560 1 39.214985249999 308.11162918951095 1.04689075 0 0 0
7561 1 49.444985849999 296.29907192097795 1.04689075 0 0 0
7562 1 47.73998574999901 299.252189089511 1.04689075 0 0 0
7563 1 46.034985649999 302.20533578951097 1.04689075 0 0 0
7564 1 44.3300026 305.158512020978 1.04689075 0 0 0
7565 1 42.624985449999 308.11162918951095 1.04689075 0 0 0
7566 2 34.100002 297.28344431048896 1.04689075 0 0 0
7567 2 37.5100022 297.28344431048896 1.04689075 0 0 0
7568 2 35.805019150001 300.236561479022 1.04689075 0 0 0
7569 2 34.100002 303.189708179022 1.04689075 0 0 0
7570 2 40.9200024 297.28344431048896 1.04689075 0 0 0
7571 2 39.215019350001 300.236561479022 1.04689075 0 0 0
7572 2 37.5100022 303.189708179022 1.04689075 0 0 0
7573 2 35.805019150001 306.142884410489 1.04689075 0 0 0
7574 2 34.100002 309.09600157902196 1.04689075 0 0 0
7575 2 44.330019650001006 297.28344431048896 1.04689075 0 0 0
7576 2 42.62500250000001 300.236561479022 1.04689075 0 0 0
7577 2 40.9200024 303.189708179022 1.04689075 0 0 0
7578 2 39.215019350001 306.142884410489 1.04689075 0 0 0
7579 2 37.5100022 309.09600157902196 1.04689075 0 0 0
7580 2 47.740019850001005 297.28344431048896 1.04689075 0 0 0
7581 2 46.035019750001005 300.236561479022 1.04689075 0 0 0
7582 2 44.330019650001006 303.189708179022 1.04689075 0 0 0
7583 2 42.62500250000001 306.142884410489 1.04689075 0 0 0
7584 2 40.9200024 309.09600157902196 1.04689075 0 0 0
7585 1 34.100002 311.06480542097796 1.04689075 0 0 0
7586 1 37.509985149999004 311.06480542097796 1.04689075 0 0 0
7587 1 35.8050021 314.017922589511 1.04689075 0 0 0
7588 1 34.100002 316.971069289511 1.04689075 0 0 0
7589 1 40.9200024 311.06480542097796 1.04689075 0 0 0
7590 1 39.214985249999 314.017922589511 1.04689075 0 0 0
7591 1 37.509985149999004 316.971069289511 1.04689075 0 0 0
7592 1 35.8050021 319.92421598951097 1.04689075 0 0 0
7593 1 34.100002 322.877392220978 1.04689075 0 0 0
7594 2 35.805019150001 312.049148279022 1.04689075 0 0 0
7595 2 34.100002 315.00232451048896 1.04689075 0 0 0
7596 2 39.215019350001 312.049148279022 1.04689075 0 0 0
7597 2 37.5100022 315.00232451048896 1.04689075 0 0 0
7598 2 35.805019150001 317.95547121048895 1.04689075 0 0 0
7599 2 34.100002 320.908617910489 1.04689075 0 0 0
7600 1 49.444985849999 302.20533578951097 1.04689075 0 0 0
7601 1 47.73998574999901 305.158512020978 1.04689075 0 0 0
7602 1 46.034985649999 308.11162918951095 1.04689075 0 0 0
7603 2 66.4950039 323.86173507902197 1.04689075 0 0 0
7604 2 49.445002900000006 300.236561479022 1.04689075 0 0 0
7605 2 47.740019850001005 303.189708179022 1.04689075 0 0 0
7606 2 46.035019750001005 306.142884410489 1.04689075 0 0 0
7607 2 44.330019650001006 309.09600157902196 1.04689075 0 0 0
7608 2 63.08502075000101 323.86173507902197 1.04689075 0 0 0
7609 2 64.790020850001 320.908617910489 1.04689075 0 0 0
7610 1 44.3300026 311.06480542097796 1.04689075 0 0 0
7611 1 42.624985449999 314.017922589511 1.04689075 0 0 0
7612 1 40.9200024 316.971069289511 1.04689075 0 0 0
7613 1 39.214985249999 319.92421598951097 1.04689075 0 0 0
7614 1 37.509985149999004 322.877392220978 1.04689075 0 0 0
7615 2 66.4950039 317.95547121048895 1.04689075 0 0 0
7616 1 46.034985649999 314.017922589511 1.04689075 0 0 0
7617 1 44.3300026 316.971069289511 1.04689075 0 0 0
7618 1 42.624985449999 319.92421598951097 1.04689075 0 0 0
7619 1 40.9200024 322.877392220978 1.04689075 0 0 0
7620 2 59.6750035 323.86173507902197 1.04689075 0 0 0
7621 1 47.73998574999901 316.971069289511 1.04689075 0 0 0
7622 1 46.034985649999 319.92421598951097 1.04689075 0 0 0
7623 1 44.3300026 322.877392220978 1.04689075 0 0 0
7624 1 49.444985849999 319.92421598951097 1.04689075 0 0 0
7625 1 47.73998574999901 322.877392220978 1.04689075 0 0 0
7626 2 42.62500250000001 312.049148279022 1.04689075 0 0 0
7627 2 40.9200024 315.00232451048896 1.04689075 0 0 0
7628 2 39.215019350001 317.95547121048895 1.04689075 0 0 0
7629 2 37.5100022 320.908617910489 1.04689075 0 0 0
7630 2 35.805019150001 323.86173507902197 1.04689075 0 0 0
7631 2 46.035019750001005 312.049148279022 1.04689075 0 0 0
7632 2 44.330019650001006 315.00232451048896 1.04689075 0 0 0
7633 2 42.62500250000001 317.95547121048895 1.04689075 0 0 0
7634 2 40.9200024 320.908617910489 1.04689075 0 0 0
7635 2 39.215019350001 323.86173507902197 1.04689075 0 0 0
7636 2 61.380020650001 320.908617910489 1.04689075 0 0 0
7637 2 47.740019850001005 315.00232451048896 1.04689075 0 0 0
7638 2 46.035019750001005 317.95547121048895 1.04689075 0 0 0
7639 2 44.330019650001006 320.908617910489 1.04689075 0 0 0
7640 2 42.62500250000001 323.86173507902197 1.04689075 0 0 0
7641 2 49.445002900000006 317.95547121048895 1.04689075 0 0 0
7642 2 47.740019850001005 320.908617910489 1.04689075 0 0 0
7643 2 46.035019750001005 323.86173507902197 1.04689075 0 0 0
7644 2 49.445002900000006 323.86173507902197 1.04689075 0 0 0
7645 1 52.855003100000005 296.29907192097795 1.04689075 0 0 0
7646 1 51.150003000000005 299.252189089511 1.04689075 0 0 0
7647 1 56.264986249999005 296.29907192097795 1.04689075 0 0 0
7648 1 54.559986149999006 299.252189089511 1.04689075 0 0 0
7649 1 52.855003100000005 302.20533578951097 1.04689075 0 0 0
7650 2 63.08502075000101 317.95547121048895 1.04689075 0 0 0
7651 1 59.674986449999004 296.29907192097795 1.04689075 0 0 0
7652 1 57.9700034 299.252189089511 1.04689075 0 0 0
7653 1 56.264986249999005 302.20533578951097 1.04689075 0 0 0
7654 1 54.559986149999006 305.158512020978 1.04689075 0 0 0
7655 2 64.790020850001 315.00232451048896 1.04689075 0 0 0
7656 1 63.084986649999 296.29907192097795 1.04689075 0 0 0
7657 1 61.3800036 299.252189089511 1.04689075 0 0 0
7658 1 59.674986449999004 302.20533578951097 1.04689075 0 0 0
7659 1 57.9700034 305.158512020978 1.04689075 0 0 0
7660 1 56.264986249999005 308.11162918951095 1.04689075 0 0 0
7661 1 66.49498684999901 296.29907192097795 1.04689075 0 0 0
7662 1 64.789986749999 299.252189089511 1.04689075 0 0 0
7663 1 63.084986649999 302.20533578951097 1.04689075 0 0 0
7664 1 61.3800036 305.158512020978 1.04689075 0 0 0
7665 1 59.674986449999004 308.11162918951095 1.04689075 0 0 0
7666 2 51.150003000000005 297.28344431048896 1.04689075 0 0 0
7667 2 54.560003200000004 297.28344431048896 1.04689075 0 0 0
7668 2 52.855020150001 300.236561479022 1.04689075 0 0 0
7669 2 51.150003000000005 303.189708179022 1.04689075 0 0 0
7670 2 57.9700034 297.28344431048896 1.04689075 0 0 0
7671 2 56.265020350001 300.236561479022 1.04689075 0 0 0
7672 2 54.560003200000004 303.189708179022 1.04689075 0 0 0
7673 2 66.4950039 312.049148279022 1.04689075 0 0 0
7674 2 56.265020350001 323.86173507902197 1.04689075 0 0 0
7675 2 61.380020650001 297.28344431048896 1.04689075 0 0 0
7676 2 59.6750035 300.236561479022 1.04689075 0 0 0
7677 2 57.9700034 303.189708179022 1.04689075 0 0 0
7678 2 56.265020350001 306.142884410489 1.04689075 0 0 0
7679 2 57.9700034 320.908617910489 1.04689075 0 0 0
7680 2 64.790020850001 297.28344431048896 1.04689075 0 0 0
7681 2 63.08502075000101 300.236561479022 1.04689075 0 0 0
7682 2 61.380020650001 303.189708179022 1.04689075 0 0 0
7683 2 59.6750035 306.142884410489 1.04689075 0 0 0
7684 2 57.9700034 309.09600157902196 1.04689075 0 0 0
7685 2 59.6750035 317.95547121048895 1.04689075 0 0 0
7686 2 61.380020650001 315.00232451048896 1.04689075 0 0 0
7687 2 63.08502075000101 312.049148279022 1.04689075 0 0 0
7688 1 51.150003000000005 316.971069289511 1.04689075 0 0 0
7689 1 57.9700034 311.06480542097796 1.04689075 0 0 0
7690 1 56.264986249999005 314.017922589511 1.04689075 0 0 0
7691 1 54.559986149999006 316.971069289511 1.04689075 0 0 0
7692 1 52.855003100000005 319.92421598951097 1.04689075 0 0 0
7693 1 51.150003000000005 322.877392220978 1.04689075 0 0 0
7694 2 52.855020150001 323.86173507902197 1.04689075 0 0 0
7695 2 54.560003200000004 320.908617910489 1.04689075 0 0 0
7696 2 56.265020350001 312.049148279022 1.04689075 0 0 0
7697 2 54.560003200000004 315.00232451048896 1.04689075 0 0 0
7698 2 52.855020150001 317.95547121048895 1.04689075 0 0 0
7699 2 51.150003000000005 320.908617910489 1.04689075 0 0 0
7700 1 66.49498684999901 302.20533578951097 1.04689075 0 0 0
7701 1 64.789986749999 305.158512020978 1.04689075 0 0 0
7702 1 63.084986649999 308.11162918951095 1.04689075 0 0 0
7703 1 66.49498684999901 308.11162918951095 1.04689075 0 0 0
7704 2 66.4950039 300.236561479022 1.04689075 0 0 0
7705 2 64.790020850001 303.189708179022 1.04689075 0 0 0
7706 2 63.08502075000101 306.142884410489 1.04689075 0 0 0
7707 2 61.380020650001 309.09600157902196 1.04689075 0 0 0
7708 2 66.4950039 306.142884410489 1.04689075 0 0 0
7709 2 64.790020850001 309.09600157902196 1.04689075 0 0 0
7710 1 61.3800036 311.06480542097796 1.04689075 0 0 0
7711 1 59.674986449999004 314.017922589511 1.04689075 0 0 0
7712 1 57.9700034 316.971069289511 1.04689075 0 0 0
7713 1 56.264986249999005 319.92421598951097 1.04689075 0 0 0
7714 1 54.559986149999006 322.877392220978 1.04689075 0 0 0
7715 1 64.789986749999 311.06480542097796 1.04689075 0 0 0
7716 1 63.084986649999 314.017922589511 1.04689075 0 0 0
7717 1 61.3800036 316.971069289511 1.04689075 0 0 0
7718 1 59.674986449999004 319.92421598951097 1.04689075 0 0 0
7719 1 57.9700034 322.877392220978 1.04689075 0 0 0
7720 1 66.49498684999901 314.017922589511 1.04689075 0 0 0
7721 1 64.789986749999 316.971069289511 1.04689075 0 0 0
7722 1 63.084986649999 319.92421598951097 1.04689075 0 0 0
7723 1 61.3800036 322.877392220978 1.04689075 0 0 0
7724 1 66.49498684999901 319.92421598951097 1.04689075 0 0 0
7725 1 64.789986749999 322.877392220978 1.04689075 0 0 0
7726 2 59.6750035 312.049148279022 1.04689075 0 0 0
7727 2 57.9700034 315.00232451048896 1.04689075 0 0 0
7728 2 56.265020350001 317.95547121048895 1.04689075 0 0 0
369 1 69.90500410000001 0.984401920978 1.04689075 0 0 0
370 1 68.200004 3.937519089511 1.04689075 0 0 0
371 1 73.314987249999 0.984401920978 1.04689075 0 0 0
372 1 71.609987149999 3.937519089511 1.04689075 0 0 0
373 1 69.90500410000001 6.890665789511 1.04689075 0 0 0
374 1 68.200004 9.843842020978 1.04689075 0 0 0
375 1 76.724987449999 0.984401920978 1.04689075 0 0 0
376 1 75.0200044 3.937519089511 1.04689075 0 0 0
377 1 73.314987249999 6.890665789511 1.04689075 0 0 0
378 1 71.609987149999 9.843842020978 1.04689075 0 0 0
379 1 69.90500410000001 12.796959189511 1.04689075 0 0 0
380 1 80.134987649999 0.984401920978 1.04689075 0 0 0
381 1 78.4300046 3.937519089511 1.04689075 0 0 0
382 1 76.724987449999 6.890665789511 1.04689075 0 0 0
383 1 75.0200044 9.843842020978 1.04689075 0 0 0
384 1 73.314987249999 12.796959189511 1.04689075 0 0 0
385 1 83.544987849999 0.984401920978 1.04689075 0 0 0
386 1 81.83998774999901 3.937519089511 1.04689075 0 0 0
387 1 80.134987649999 6.890665789511 1.04689075 0 0 0
388 1 78.4300046 9.843842020978 1.04689075 0 0 0
389 1 76.724987449999 12.796959189511 1.04689075 0 0 0
390 2 68.200004 1.968774310489 1.04689075 0 0 0
391 2 71.6100042 1.968774310489 1.04689075 0 0 0
392 2 69.905021150001 4.921891479022 1.04689075 0 0 0
393 2 68.200004 7.875038179022 1.04689075 0 0 0
394 2 75.0200044 1.968774310489 1.04689075 0 0 0
395 2 73.315021350001 4.921891479022 1.04689075 0 0 0
396 2 71.6100042 7.875038179022 1.04689075 0 0 0
397 2 69.905021150001 10.828214410489 1.04689075 0 0 0
398 2 68.200004 13.781331579022 1.04689075 0 0 0
399 2 78.43002165000101 1.968774310489 1.04689075 0 0 0
400 2 76.72500450000001 4.921891479022 1.04689075 0 0 0
401 2 75.0200044 7.875038179022 1.04689075 0 0 0
402 2 73.315021350001 10.828214410489 1.04689075 0 0 0
403 2 71.6100042 13.781331579022 1.04689075 0 0 0
404 2 81.84002185000101 1.968774310489 1.04689075 0 0 0
405 2 80.135021750001 4.921891479022 1.04689075 0 0 0
406 2 78.43002165000101 7.875038179022 1.04689075 0 0 0
407 2 76.72500450000001 10.828214410489 1.04689075 0 0 0
408 2 75.0200044 13.781331579022 1.04689075 0 0 0
409 1 68.200004 15.750135420978 1.04689075 0 0 0
410 1 71.609987149999 15.750135420978 1.04689075 0 0 0
411 1 69.90500410000001 18.703252589511 1.04689075 0 0 0
412 1 68.200004 21.656399289511 1.04689075 0 0 0
413 1 75.0200044 15.750135420978 1.04689075 0 0 0
414 1 73.314987249999 18.703252589511 1.04689075 0 0 0
415 1 71.609987149999 21.656399289511 1.04689075 0 0 0
416 1 69.90500410000001 24.609545989511 1.04689075 0 0 0
417 1 68.200004 27.562722220978 1.04689075 0 0 0
418 2 69.905021150001 16.734478279022 1.04689075 0 0 0
419 2 68.200004 19.687654510489 1.04689075 0 0 0
420 2 73.315021350001 16.734478279022 1.04689075 0 0 0
421 2 71.6100042 19.687654510489 1.04689075 0 0 0
422 2 69.905021150001 22.640801210489 1.04689075 0 0 0
423 2 68.200004 25.593947910489 1.04689075 0 0 0
424 1 83.544987849999 6.890665789511 1.04689075 0 0 0
425 1 81.83998774999901 9.843842020978 1.04689075 0 0 0
426 1 80.134987649999 12.796959189511 1.04689075 0 0 0
427 2 100.5950059 28.547065079022 1.04689075 0 0 0
428 2 83.54500490000001 4.921891479022 1.04689075 0 0 0
429 2 81.84002185000101 7.875038179022 1.04689075 0 0 0
430 2 80.135021750001 10.828214410489 1.04689075 0 0 0
431 2 78.43002165000101 13.781331579022 1.04689075 0 0 0
432 2 97.18502275000101 28.547065079022 1.04689075 0 0 0
433 2 98.890022850001 25.593947910489 1.04689075 0 0 0
434 1 78.4300046 15.750135420978 1.04689075 0 0 0
435 1 76.724987449999 18.703252589511 1.04689075 0 0 0
436 1 75.0200044 21.656399289511 1.04689075 0 0 0
437 1 73.314987249999 24.609545989511 1.04689075 0 0 0
438 1 71.609987149999 27.562722220978 1.04689075 0 0 0
439 2 100.5950059 22.640801210489 1.04689075 0 0 0
440 1 80.134987649999 18.703252589511 1.04689075 0 0 0
441 1 78.4300046 21.656399289511 1.04689075 0 0 0
442 1 76.724987449999 24.609545989511 1.04689075 0 0 0
443 1 75.0200044 27.562722220978 1.04689075 0 0 0
444 2 93.7750055 28.547065079022 1.04689075 0 0 0
445 1 81.83998774999901 21.656399289511 1.04689075 0 0 0
446 1 80.134987649999 24.609545989511 1.04689075 0 0 0
447 1 78.4300046 27.562722220978 1.04689075 0 0 0
448 1 83.544987849999 24.609545989511 1.04689075 0 0 0
449 1 81.83998774999901 27.562722220978 1.04689075 0 0 0
450 2 76.72500450000001 16.734478279022 1.04689075 0 0 0
451 2 75.0200044 19.687654510489 1.04689075 0 0 0
452 2 73.315021350001 22.640801210489 1.04689075 0 0 0
453 2 71.6100042 25.593947910489 1.04689075 0 0 0
454 2 69.905021150001 28.547065079022 1.04689075 0 0 0
455 2 80.135021750001 16.734478279022 1.04689075 0 0 0
456 2 78.43002165000101 19.687654510489 1.04689075 0 0 0
457 2 76.72500450000001 22.640801210489 1.04689075 0 0 0
458 2 75.0200044 25.593947910489 1.04689075 0 0 0
459 2 73.315021350001 28.547065079022 1.04689075 0 0 0
460 2 95.480022650001 25.593947910489 1.04689075 0 0 0
461 2 81.84002185000101 19.687654510489 1.04689075 0 0 0
462 2 80.135021750001 22.640801210489 1.04689075 0 0 0
463 2 78.43002165000101 25.593947910489 1.04689075 0 0 0
464 2 76.72500450000001 28.547065079022 1.04689075 0 0 0
465 2 83.54500490000001 22.640801210489 1.04689075 0 0 0
466 2 81.84002185000101 25.593947910489 1.04689075 0 0 0
467 2 80.135021750001 28.547065079022 1.04689075 0 0 0
468 2 83.54500490000001 28.547065079022 1.04689075 0 0 0
469 1 86.95500510000001 0.984401920978 1.04689075 0 0 0
470 1 85.25000500000002 3.937519089511 1.04689075 0 0 0
471 1 90.36498824999902 0.984401920978 1.04689075 0 0 0
472 1 88.65998814999901 3.937519089511 1.04689075 0 0 0
473 1 86.95500510000001 6.890665789511 1.04689075 0 0 0
474 2 97.18502275000101 22.640801210489 1.04689075 0 0 0
475 1 93.774988449999 0.984401920978 1.04689075 0 0 0
476 1 92.07000540000001 3.937519089511 1.04689075 0 0 0
477 1 90.36498824999902 6.890665789511 1.04689075 0 0 0
478 1 88.65998814999901 9.843842020978 1.04689075 0 0 0
479 2 98.890022850001 19.687654510489 1.04689075 0 0 0
480 1 97.18498864999901 0.984401920978 1.04689075 0 0 0
481 1 95.4800056 3.937519089511 1.04689075 0 0 0
482 1 93.774988449999 6.890665789511 1.04689075 0 0 0
483 1 92.07000540000001 9.843842020978 1.04689075 0 0 0
484 1 90.36498824999902 12.796959189511 1.04689075 0 0 0
485 1 100.594988849999 0.984401920978 1.04689075 0 0 0
486 1 98.889988749999 3.937519089511 1.04689075 0 0 0
487 1 97.18498864999901 6.890665789511 1.04689075 0 0 0
488 1 95.4800056 9.843842020978 1.04689075 0 0 0
489 1 93.774988449999 12.796959189511 1.04689075 0 0 0
490 2 85.25000500000002 1.968774310489 1.04689075 0 0 0
491 2 88.6600052 1.968774310489 1.04689075 0 0 0
492 2 86.95502215000101 4.921891479022 1.04689075 0 0 0
493 2 85.25000500000002 7.875038179022 1.04689075 0 0 0
494 2 92.07000540000001 1.968774310489 1.04689075 0 0 0
495 2 90.365022350001 4.921891479022 1.04689075 0 0 0
496 2 88.6600052 7.875038179022 1.04689075 0 0 0
497 2 100.5950059 16.734478279022 1.04689075 0 0 0
498 2 90.365022350001 28.547065079022 1.04689075 0 0 0
499 2 95.480022650001 1.968774310489 1.04689075 0 0 0
500 2 93.7750055 4.921891479022 1.04689075 0 0 0
501 2 92.07000540000001 7.875038179022 1.04689075 0 0 0
502 2 90.365022350001 10.828214410489 1.04689075 0 0 0
503 2 92.07000540000001 25.593947910489 1.04689075 0 0 0
504 2 98.890022850001 1.968774310489 1.04689075 0 0 0
505 2 97.18502275000101 4.921891479022 1.04689075 0 0 0
506 2 95.480022650001 7.875038179022 1.04689075 0 0 0
507 2 93.7750055 10.828214410489 1.04689075 0 0 0
508 2 92.07000540000001 13.781331579022 1.04689075 0 0 0
509 2 93.7750055 22.640801210489 1.04689075 0 0 0
510 2 95.480022650001 19.687654510489 1.04689075 0 0 0
511 2 97.18502275000101 16.734478279022 1.04689075 0 0 0
512 1 85.25000500000002 21.656399289511 1.04689075 0 0 0
513 1 92.07000540000001 15.750135420978 1.04689075 0 0 0
514 1 90.36498824999902 18.703252589511 1.04689075 0 0 0
515 1 88.65998814999901 21.656399289511 1.04689075 0 0 0
516 1 86.95500510000001 24.609545989511 1.04689075 0 0 0
517 1 85.25000500000002 27.562722220978 1.04689075 0 0 0
518 2 86.95502215000101 28.547065079022 1.04689075 0 0 0
519 2 88.6600052 25.593947910489 1.04689075 0 0 0
520 2 90.365022350001 16.734478279022 1.04689075 0 0 0
521 2 88.6600052 19.687654510489 1.04689075 0 0 0
522 2 86.95502215000101 22.640801210489 1.04689075 0 0 0
523 2 85.25000500000002 25.593947910489 1.04689075 0 0 0
524 1 100.594988849999 6.890665789511 1.04689075 0 0 0
525 1 98.889988749999 9.843842020978 1.04689075 0 0 0
526 1 97.18498864999901 12.796959189511 1.04689075 0 0 0
527 1 100.594988849999 12.796959189511 1.04689075 0 0 0
528 2 100.5950059 4.921891479022 1.04689075 0 0 0
529 2 98.890022850001 7.875038179022 1.04689075 0 0 0
530 2 97.18502275000101 10.828214410489 1.04689075 0 0 0
531 2 95.480022650001 13.781331579022 1.04689075 0 0 0
532 2 100.5950059 10.828214410489 1.04689075 0 0 0
533 2 98.890022850001 13.781331579022 1.04689075 0 0 0
534 1 95.4800056 15.750135420978 1.04689075 0 0 0
535 1 93.774988449999 18.703252589511 1.04689075 0 0 0
536 1 92.07000540000001 21.656399289511 1.04689075 0 0 0
537 1 90.36498824999902 24.609545989511 1.04689075 0 0 0
538 1 88.65998814999901 27.562722220978 1.04689075 0 0 0
539 1 98.889988749999 15.750135420978 1.04689075 0 0 0
540 1 97.18498864999901 18.703252589511 1.04689075 0 0 0
541 1 95.4800056 21.656399289511 1.04689075 0 0 0
542 1 93.774988449999 24.609545989511 1.04689075 0 0 0
543 1 92.07000540000001 27.562722220978 1.04689075 0 0 0
544 1 100.594988849999 18.703252589511 1.04689075 0 0 0
545 1 98.889988749999 21.656399289511 1.04689075 0 0 0
546 1 97.18498864999901 24.609545989511 1.04689075 0 0 0
547 1 95.4800056 27.562722220978 1.04689075 0 0 0
548 1 100.594988849999 24.609545989511 1.04689075 0 0 0
549 1 98.889988749999 27.562722220978 1.04689075 0 0 0
550 2 93.7750055 16.734478279022 1.04689075 0 0 0
551 2 92.07000540000001 19.687654510489 1.04689075 0 0 0
552 2 90.365022350001 22.640801210489 1.04689075 0 0 0
1105 1 69.90500410000001 30.515868920978 1.04689075 0 0 0
1106 1 68.200004 33.468986089511 1.04689075 0 0 0
1107 1 73.314987249999 30.515868920978 1.04689075 0 0 0
1108 1 71.609987149999 33.468986089511 1.04689075 0 0 0
1109 1 69.90500410000001 36.422132789511 1.04689075 0 0 0
1110 1 68.200004 39.375309020978 1.04689075 0 0 0
1111 1 76.724987449999 30.515868920978 1.04689075 0 0 0
1112 1 75.0200044 33.468986089511 1.04689075 0 0 0
1113 1 73.314987249999 36.422132789511 1.04689075 0 0 0
1114 1 71.609987149999 39.375309020978 1.04689075 0 0 0
1115 1 69.90500410000001 42.328426189511 1.04689075 0 0 0
1116 1 80.134987649999 30.515868920978 1.04689075 0 0 0
1117 1 78.4300046 33.468986089511 1.04689075 0 0 0
1118 1 76.724987449999 36.422132789511 1.04689075 0 0 0
1119 1 75.0200044 39.375309020978 1.04689075 0 0 0
1120 1 73.314987249999 42.328426189511 1.04689075 0 0 0
1121 1 83.544987849999 30.515868920978 1.04689075 0 0 0
1122 1 81.83998774999901 33.468986089511 1.04689075 0 0 0
1123 1 80.134987649999 36.422132789511 1.04689075 0 0 0
1124 1 78.4300046 39.375309020978 1.04689075 0 0 0
1125 1 76.724987449999 42.328426189511 1.04689075 0 0 0
1126 2 68.200004 31.500241310489 1.04689075 0 0 0
1127 2 71.6100042 31.500241310489 1.04689075 0 0 0
1128 2 69.905021150001 34.453358479022 1.04689075 0 0 0
1129 2 68.200004 37.406505179022 1.04689075 0 0 0
1130 2 75.0200044 31.500241310489 1.04689075 0 0 0
1131 2 73.315021350001 34.453358479022 1.04689075 0 0 0
1132 2 71.6100042 37.406505179022 1.04689075 0 0 0
1133 2 69.905021150001 40.359681410489 1.04689075 0 0 0
1134 2 68.200004 43.312798579022 1.04689075 0 0 0
1135 2 78.43002165000101 31.500241310489 1.04689075 0 0 0
1136 2 76.72500450000001 34.453358479022 1.04689075 0 0 0
1137 2 75.0200044 37.406505179022 1.04689075 0 0 0
1138 2 73.315021350001 40.359681410489 1.04689075 0 0 0
1139 2 71.6100042 43.312798579022 1.04689075 0 0 0
1140 2 81.84002185000101 31.500241310489 1.04689075 0 0 0
1141 2 80.135021750001 34.453358479022 1.04689075 0 0 0
1142 2 78.43002165000101 37.406505179022 1.04689075 0 0 0
1143 2 76.72500450000001 40.359681410489 1.04689075 0 0 0
1144 2 75.0200044 43.312798579022 1.04689075 0 0 0
1145 1 68.200004 45.281602420978 1.04689075 0 0 0
1146 1 71.609987149999 45.281602420978 1.04689075 0 0 0
1147 1 69.90500410000001 48.234719589511 1.04689075 0 0 0
1148 1 68.200004 51.187866289511 1.04689075 0 0 0
1149 1 75.0200044 45.281602420978 1.04689075 0 0 0
1150 1 73.314987249999 48.234719589511 1.04689075 0 0 0
1151 1 71.609987149999 51.187866289511 1.04689075 0 0 0
1152 1 69.90500410000001 54.141012989511 1.04689075 0 0 0
1153 1 68.200004 57.094189220977995 1.04689075 0 0 0
1154 2 69.905021150001 46.265945279022 1.04689075 0 0 0
1155 2 68.200004 49.219121510489 1.04689075 0 0 0
1156 2 73.315021350001 46.265945279022 1.04689075 0 0 0
1157 2 71.6100042 49.219121510489 1.04689075 0 0 0
1158 2 69.905021150001 52.172268210488994 1.04689075 0 0 0
1159 2 68.200004 55.125414910489 1.04689075 0 0 0
1160 1 83.544987849999 36.422132789511 1.04689075 0 0 0
1161 1 81.83998774999901 39.375309020978 1.04689075 0 0 0
1162 1 80.134987649999 42.328426189511 1.04689075 0 0 0
1163 2 100.5950059 58.078532079022 1.04689075 0 0 0
1164 2 83.54500490000001 34.453358479022 1.04689075 0 0 0
1165 2 81.84002185000101 37.406505179022 1.04689075 0 0 0
1166 2 80.135021750001 40.359681410489 1.04689075 0 0 0
1167 2 78.43002165000101 43.312798579022 1.04689075 0 0 0
1168 2 97.18502275000101 58.078532079022 1.04689075 0 0 0
1169 2 98.890022850001 55.125414910489 1.04689075 0 0 0
1170 1 78.4300046 45.281602420978 1.04689075 0 0 0
1171 1 76.724987449999 48.234719589511 1.04689075 0 0 0
1172 1 75.0200044 51.187866289511 1.04689075 0 0 0
1173 1 73.314987249999 54.141012989511 1.04689075 0 0 0
1174 1 71.609987149999 57.094189220977995 1.04689075 0 0 0
1175 2 100.5950059 52.172268210488994 1.04689075 0 0 0
1176 1 80.134987649999 48.234719589511 1.04689075 0 0 0
1177 1 78.4300046 51.187866289511 1.04689075 0 0 0
1178 1 76.724987449999 54.141012989511 1.04689075 0 0 0
1179 1 75.0200044 57.094189220977995 1.04689075 0 0 0
1180 2 93.7750055 58.078532079022 1.04689075 0 0 0
1181 1 81.83998774999901 51.187866289511 1.04689075 0 0 0
1182 1 80.134987649999 54.141012989511 1.04689075 0 0 0
1183 1 78.4300046 57.094189220977995 1.04689075 0 0 0
1184 1 83.544987849999 54.141012989511 1.04689075 0 0 0
1185 1 81.83998774999901 57.094189220977995 1.04689075 0 0 0
1186 2 76.72500450000001 46.265945279022 1.04689075 0 0 0
1187 2 75.0200044 49.219121510489 1.04689075 0 0 0
1188 2 73.315021350001 52.172268210488994 1.04689075 0 0 0
1189 2 71.6100042 55.125414910489 1.04689075 0 0 0
1190 2 69.905021150001 58.078532079022 1.04689075 0 0 0
1191 2 80.135021750001 46.265945279022 1.04689075 0 0 0
1192 2 78.43002165000101 49.219121510489 1.04689075 0 0 0
1193 2 76.72500450000001 52.172268210488994 1.04689075 0 0 0
1194 2 75.0200044 55.125414910489 1.04689075 0 0 0
1195 2 73.315021350001 58.078532079022 1.04689075 0 0 0
1196 2 95.480022650001 55.125414910489 1.04689075 0 0 0
1197 2 81.84002185000101 49.219121510489 1.04689075 0 0 0
1198 2 80.135021750001 52.172268210488994 1.04689075 0 0 0
1199 2 78.43002165000101 55.125414910489 1.04689075 0 0 0
1200 2 76.72500450000001 58.078532079022 1.04689075 0 0 0
1201 2 83.54500490000001 52.172268210488994 1.04689075 0 0 0
1202 2 81.84002185000101 55.125414910489 1.04689075 0 0 0
1203 2 80.135021750001 58.078532079022 1.04689075 0 0 0
1204 2 83.54500490000001 58.078532079022 1.04689075 0 0 0
1205 1 86.95500510000001 30.515868920978 1.04689075 0 0 0
1206 1 85.25000500000002 33.468986089511 1.04689075 0 0 0
1207 1 90.36498824999902 30.515868920978 1.04689075 0 0 0
1208 1 88.65998814999901 33.468986089511 1.04689075 0 0 0
1209 1 86.95500510000001 36.422132789511 1.04689075 0 0 0
1210 2 97.18502275000101 52.172268210488994 1.04689075 0 0 0
1211 1 93.774988449999 30.515868920978 1.04689075 0 0 0
1212 1 92.07000540000001 33.468986089511 1.04689075 0 0 0
1213 1 90.36498824999902 36.422132789511 1.04689075 0 0 0
1214 1 88.65998814999901 39.375309020978 1.04689075 0 0 0
1215 2 98.890022850001 49.219121510489 1.04689075 0 0 0
1216 1 97.18498864999901 30.515868920978 1.04689075 0 0 0
1217 1 95.4800056 33.468986089511 1.04689075 0 0 0
1218 1 93.774988449999 36.422132789511 1.04689075 0 0 0
1219 1 92.07000540000001 39.375309020978 1.04689075 0 0 0
1220 1 90.36498824999902 42.328426189511 1.04689075 0 0 0
1221 1 100.594988849999 30.515868920978 1.04689075 0 0 0
1222 1 98.889988749999 33.468986089511 1.04689075 0 0 0
1223 1 97.18498864999901 36.422132789511 1.04689075 0 0 0
1224 1 95.4800056 39.375309020978 1.04689075 0 0 0
1225 1 93.774988449999 42.328426189511 1.04689075 0 0 0
1226 2 85.25000500000002 31.500241310489 1.04689075 0 0 0
1227 2 88.6600052 31.500241310489 1.04689075 0 0 0
1228 2 86.95502215000101 34.453358479022 1.04689075 0 0 0
1229 2 85.25000500000002 37.406505179022 1.04689075 0 0 0
1230 2 92.07000540000001 31.500241310489 1.04689075 0 0 0
1231 2 90.365022350001 34.453358479022 1.04689075 0 0 0
1232 2 88.6600052 37.406505179022 1.04689075 0 0 0
1233 2 100.5950059 46.265945279022 1.04689075 0 0 0
1234 2 90.365022350001 58.078532079022 1.04689075 0 0 0
1235 2 95.480022650001 31.500241310489 1.04689075 0 0 0
1236 2 93.7750055 34.453358479022 1.04689075 0 0 0
1237 2 92.07000540000001 37.406505179022 1.04689075 0 0 0
1238 2 90.365022350001 40.359681410489 1.04689075 0 0 0
1239 2 92.07000540000001 55.125414910489 1.04689075 0 0 0
1240 2 98.890022850001 31.500241310489 1.04689075 0 0 0
1241 2 97.18502275000101 34.453358479022 1.04689075 0 0 0
1242 2 95.480022650001 37.406505179022 1.04689075 0 0 0
1243 2 93.7750055 40.359681410489 1.04689075 0 0 0
1244 2 92.07000540000001 43.312798579022 1.04689075 0 0 0
1245 2 93.7750055 52.172268210488994 1.04689075 0 0 0
1246 2 95.480022650001 49.219121510489 1.04689075 0 0 0
1247 2 97.18502275000101 46.265945279022 1.04689075 0 0 0
1248 1 85.25000500000002 51.187866289511 1.04689075 0 0 0
1249 1 92.07000540000001 45.281602420978 1.04689075 0 0 0
1250 1 90.36498824999902 48.234719589511 1.04689075 0 0 0
1251 1 88.65998814999901 51.187866289511 1.04689075 0 0 0
1252 1 86.95500510000001 54.141012989511 1.04689075 0 0 0
1253 1 85.25000500000002 57.094189220977995 1.04689075 0 0 0
1254 2 86.95502215000101 58.078532079022 1.04689075 0 0 0
1255 2 88.6600052 55.125414910489 1.04689075 0 0 0
1256 2 90.365022350001 46.265945279022 1.04689075 0 0 0
1257 2 88.6600052 49.219121510489 1.04689075 0 0 0
1258 2 86.95502215000101 52.172268210488994 1.04689075 0 0 0
1259 2 85.25000500000002 55.125414910489 1.04689075 0 0 0
1260 1 100.594988849999 36.422132789511 1.04689075 0 0 0
1261 1 98.889988749999 39.375309020978 1.04689075 0 0 0
1262 1 97.18498864999901 42.328426189511 1.04689075 0 0 0
1263 1 100.594988849999 42.328426189511 1.04689075 0 0 0
1264 2 100.5950059 34.453358479022 1.04689075 0 0 0
1265 2 98.890022850001 37.406505179022 1.04689075 0 0 0
1266 2 97.18502275000101 40.359681410489 1.04689075 0 0 0
1267 2 95.480022650001 43.312798579022 1.04689075 0 0 0
1268 2 100.5950059 40.359681410489 1.04689075 0 0 0
1269 2 98.890022850001 43.312798579022 1.04689075 0 0 0
1270 1 95.4800056 45.281602420978 1.04689075 0 0 0
1271 1 93.774988449999 48.234719589511 1.04689075 0 0 0
1272 1 92.07000540000001 51.187866289511 1.04689075 0 0 0
1273 1 90.36498824999902 54.141012989511 1.04689075 0 0 0
1274 1 88.65998814999901 57.094189220977995 1.04689075 0 0 0
1275 1 98.889988749999 45.281602420978 1.04689075 0 0 0
1276 1 97.18498864999901 48.234719589511 1.04689075 0 0 0
1277 1 95.4800056 51.187866289511 1.04689075 0 0 0
1278 1 93.774988449999 54.141012989511 1.04689075 0 0 0
1279 1 92.07000540000001 57.094189220977995 1.04689075 0 0 0
1280 1 100.594988849999 48.234719589511 1.04689075 0 0 0
1281 1 98.889988749999 51.187866289511 1.04689075 0 0 0
1282 1 97.18498864999901 54.141012989511 1.04689075 0 0 0
1283 1 95.4800056 57.094189220977995 1.04689075 0 0 0
1284 1 100.594988849999 54.141012989511 1.04689075 0 0 0
1285 1 98.889988749999 57.094189220977995 1.04689075 0 0 0
1286 2 93.7750055 46.265945279022 1.04689075 0 0 0
1287 2 92.07000540000001 49.219121510489 1.04689075 0 0 0
1288 2 90.365022350001 52.172268210488994 1.04689075 0 0 0
1841 1 69.90500410000001 60.047335920978 1.04689075 0 0 0
1842 1 68.200004 63.000453089511 1.04689075 0 0 0
1843 1 73.314987249999 60.047335920978 1.04689075 0 0 0
1844 1 71.609987149999 63.000453089511 1.04689075 0 0 0
1845 1 69.90500410000001 65.953599789511 1.04689075 0 0 0
1846 1 68.200004 68.906776020978 1.04689075 0 0 0
1847 1 76.724987449999 60.047335920978 1.04689075 0 0 0
1848 1 75.0200044 63.000453089511 1.04689075 0 0 0
1849 1 73.314987249999 65.953599789511 1.04689075 0 0 0
1850 1 71.609987149999 68.906776020978 1.04689075 0 0 0
1851 1 69.90500410000001 71.859893189511 1.04689075 0 0 0
1852 1 80.134987649999 60.047335920978 1.04689075 0 0 0
1853 1 78.4300046 63.000453089511 1.04689075 0 0 0
1854 1 76.724987449999 65.953599789511 1.04689075 0 0 0
1855 1 75.0200044 68.906776020978 1.04689075 0 0 0
1856 1 73.314987249999 71.859893189511 1.04689075 0 0 0
1857 1 83.544987849999 60.047335920978 1.04689075 0 0 0
1858 1 81.83998774999901 63.000453089511 1.04689075 0 0 0
1859 1 80.134987649999 65.953599789511 1.04689075 0 0 0
1860 1 78.4300046 68.906776020978 1.04689075 0 0 0
1861 1 76.724987449999 71.859893189511 1.04689075 0 0 0
1862 2 68.200004 61.031708310489 1.04689075 0 0 0
1863 2 71.6100042 61.031708310489 1.04689075 0 0 0
1864 2 69.905021150001 63.984825479022 1.04689075 0 0 0
1865 2 68.200004 66.937972179022 1.04689075 0 0 0
1866 2 75.0200044 61.031708310489 1.04689075 0 0 0
1867 2 73.315021350001 63.984825479022 1.04689075 0 0 0
1868 2 71.6100042 66.937972179022 1.04689075 0 0 0
1869 2 69.905021150001 69.891148410489 1.04689075 0 0 0
1870 2 68.200004 72.844265579022 1.04689075 0 0 0
1871 2 78.43002165000101 61.031708310489 1.04689075 0 0 0
1872 2 76.72500450000001 63.984825479022 1.04689075 0 0 0
1873 2 75.0200044 66.937972179022 1.04689075 0 0 0
1874 2 73.315021350001 69.891148410489 1.04689075 0 0 0
1875 2 71.6100042 72.844265579022 1.04689075 0 0 0
1876 2 81.84002185000101 61.031708310489 1.04689075 0 0 0
1877 2 80.135021750001 63.984825479022 1.04689075 0 0 0
1878 2 78.43002165000101 66.937972179022 1.04689075 0 0 0
1879 2 76.72500450000001 69.891148410489 1.04689075 0 0 0
1880 2 75.0200044 72.844265579022 1.04689075 0 0 0
1881 1 68.200004 74.813069420978 1.04689075 0 0 0
1882 1 71.609987149999 74.813069420978 1.04689075 0 0 0
1883 1 69.90500410000001 77.766186589511 1.04689075 0 0 0
1884 1 68.200004 80.719333289511 1.04689075 0 0 0
1885 1 75.0200044 74.813069420978 1.04689075 0 0 0
1886 1 73.314987249999 77.766186589511 1.04689075 0 0 0
1887 1 71.609987149999 80.719333289511 1.04689075 0 0 0
1888 1 69.90500410000001 83.672479989511 1.04689075 0 0 0
1889 1 68.200004 86.625656220978 1.04689075 0 0 0
1890 2 69.905021150001 75.797412279022 1.04689075 0 0 0
1891 2 68.200004 78.750588510489 1.04689075 0 0 0
1892 2 73.315021350001 75.797412279022 1.04689075 0 0 0
1893 2 71.6100042 78.750588510489 1.04689075 0 0 0
1894 2 69.905021150001 81.703735210489 1.04689075 0 0 0
1895 2 68.200004 84.656881910489 1.04689075 0 0 0
1896 1 83.544987849999 65.953599789511 1.04689075 0 0 0
1897 1 81.83998774999901 68.906776020978 1.04689075 0 0 0
1898 1 80.134987649999 71.859893189511 1.04689075 0 0 0
1899 2 100.5950059 87.609999079022 1.04689075 0 0 0
1900 2 83.54500490000001 63.984825479022 1.04689075 0 0 0
1901 2 81.84002185000101 66.937972179022 1.04689075 0 0 0
1902 2 80.135021750001 69.891148410489 1.04689075 0 0 0
1903 2 78.43002165000101 72.844265579022 1.04689075 0 0 0
1904 2 97.18502275000101 87.609999079022 1.04689075 0 0 0
1905 2 98.890022850001 84.656881910489 1.04689075 0 0 0
1906 1 78.4300046 74.813069420978 1.04689075 0 0 0
1907 1 76.724987449999 77.766186589511 1.04689075 0 0 0
1908 1 75.0200044 80.719333289511 1.04689075 0 0 0
1909 1 73.314987249999 83.672479989511 1.04689075 0 0 0
1910 1 71.609987149999 86.625656220978 1.04689075 0 0 0
1911 2 100.5950059 81.703735210489 1.04689075 0 0 0
1912 1 80.134987649999 77.766186589511 1.04689075 0 0 0
1913 1 78.4300046 80.719333289511 1.04689075 0 0 0
1914 1 76.724987449999 83.672479989511 1.04689075 0 0 0
1915 1 75.0200044 86.625656220978 1.04689075 0 0 0
1916 2 93.7750055 87.609999079022 1.04689075 0 0 0
1917 1 81.83998774999901 80.719333289511 1.04689075 0 0 0
1918 1 80.134987649999 83.672479989511 1.04689075 0 0 0
1919 1 78.4300046 86.625656220978 1.04689075 0 0 0
1920 1 83.544987849999 83.672479989511 1.04689075 0 0 0
1921 1 81.83998774999901 86.625656220978 1.04689075 0 0 0
1922 2 76.72500450000001 75.797412279022 1.04689075 0 0 0
1923 2 75.0200044 78.750588510489 1.04689075 0 0 0
1924 2 73.315021350001 81.703735210489 1.04689075 0 0 0
1925 2 71.6100042 84.656881910489 1.04689075 0 0 0
1926 2 69.905021150001 87.609999079022 1.04689075 0 0 0
1927 2 80.135021750001 75.797412279022 1.04689075 0 0 0
1928 2 78.43002165000101 78.750588510489 1.04689075 0 0 0
1929 2 76.72500450000001 81.703735210489 1.04689075 0 0 0
1930 2 75.0200044 84.656881910489 1.04689075 0 0 0
1931 2 73.315021350001 87.609999079022 1.04689075 0 0 0
1932 2 95.480022650001 84.656881910489 1.04689075 0 0 0
1933 2 81.84002185000101 78.750588510489 1.04689075 0 0 0
1934 2 80.135021750001 81.703735210489 1.04689075 0 0 0
1935 2 78.43002165000101 84.656881910489 1.04689075 0 0 0
1936 2 76.72500450000001 87.609999079022 1.04689075 0 0 0
1937 2 83.54500490000001 81.703735210489 1.04689075 0 0 0
1938 2 81.84002185000101 84.656881910489 1.04689075 0 0 0
1939 2 80.135021750001 87.609999079022 1.04689075 0 0 0
1940 2 83.54500490000001 87.609999079022 1.04689075 0 0 0
1941 1 86.95500510000001 60.047335920978 1.04689075 0 0 0
1942 1 85.25000500000002 63.000453089511 1.04689075 0 0 0
1943 1 90.36498824999902 60.047335920978 1.04689075 0 0 0
1944 1 88.65998814999901 63.000453089511 1.04689075 0 0 0
1945 1 86.95500510000001 65.953599789511 1.04689075 0 0 0
1946 2 97.18502275000101 81.703735210489 1.04689075 0 0 0
1947 1 93.774988449999 60.047335920978 1.04689075 0 0 0
1948 1 92.07000540000001 63.000453089511 1.04689075 0 0 0
1949 1 90.36498824999902 65.953599789511 1.04689075 0 0 0
1950 1 88.65998814999901 68.906776020978 1.04689075 0 0 0
1951 2 98.890022850001 78.750588510489 1.04689075 0 0 0
1952 1 97.18498864999901 60.047335920978 1.04689075 0 0 0
1953 1 95.4800056 63.000453089511 1.04689075 0 0 0
1954 1 93.774988449999 65.953599789511 1.04689075 0 0 0
1955 1 92.07000540000001 68.906776020978 1.04689075 0 0 0
1956 1 90.36498824999902 71.859893189511 1.04689075 0 0 0
1957 1 100.594988849999 60.047335920978 1.04689075 0 0 0
1958 1 98.889988749999 63.000453089511 1.04689075 0 0 0
1959 1 97.18498864999901 65.953599789511 1.04689075 0 0 0
1960 1 95.4800056 68.906776020978 1.04689075 0 0 0
1961 1 93.774988449999 71.859893189511 1.04689075 0 0 0
1962 2 85.25000500000002 61.031708310489 1.04689075 0 0 0
1963 2 88.6600052 61.031708310489 1.04689075 0 0 0
1964 2 86.95502215000101 63.984825479022 1.04689075 0 0 0
1965 2 85.25000500000002 66.937972179022 1.04689075 0 0 0
1966 2 92.07000540000001 61.031708310489 1.04689075 0 0 0
1967 2 90.365022350001 63.984825479022 1.04689075 0 0 0
1968 2 88.6600052 66.937972179022 1.04689075 0 0 0
1969 2 100.5950059 75.797412279022 1.04689075 0 0 0
1970 2 90.365022350001 87.609999079022 1.04689075 0 0 0
1971 2 95.480022650001 61.031708310489 1.04689075 0 0 0
1972 2 93.7750055 63.984825479022 1.04689075 0 0 0
1973 2 92.07000540000001 66.937972179022 1.04689075 0 0 0
1974 2 90.365022350001 69.891148410489 1.04689075 0 0 0
1975 2 92.07000540000001 84.656881910489 1.04689075 0 0 0
1976 2 98.890022850001 61.031708310489 1.04689075 0 0 0
1977 2 97.18502275000101 63.984825479022 1.04689075 0 0 0
1978 2 95.480022650001 66.937972179022 1.04689075 0 0 0
1979 2 93.7750055 69.891148410489 1.04689075 0 0 0
1980 2 92.07000540000001 72.844265579022 1.04689075 0 0 0
1981 2 93.7750055 81.703735210489 1.04689075 0 0 0
1982 2 95.480022650001 78.750588510489 1.04689075 0 0 0
1983 2 97.18502275000101 75.797412279022 1.04689075 0 0 0
1984 1 85.25000500000002 80.719333289511 1.04689075 0 0 0
1985 1 92.07000540000001 74.813069420978 1.04689075 0 0 0
1986 1 90.36498824999902 77.766186589511 1.04689075 0 0 0
1987 1 88.65998814999901 80.719333289511 1.04689075 0 0 0
1988 1 86.95500510000001 83.672479989511 1.04689075 0 0 0
1989 1 85.25000500000002 86.625656220978 1.04689075 0 0 0
1990 2 86.95502215000101 87.609999079022 1.04689075 0 0 0
1991 2 88.6600052 84.656881910489 1.04689075 0 0 0
1992 2 90.365022350001 75.797412279022 1.04689075 0 0 0
1993 2 88.6600052 78.750588510489 1.04689075 0 0 0
1994 2 86.95502215000101 81.703735210489 1.04689075 0 0 0
1995 2 85.25000500000002 84.656881910489 1.04689075 0 0 0
1996 1 100.594988849999 65.953599789511 1.04689075 0 0 0
1997 1 98.889988749999 68.906776020978 1.04689075 0 0 0
1998 1 97.18498864999901 71.859893189511 1.04689075 0 0 0
1999 1 100.594988849999 71.859893189511 1.04689075 0 0 0
2000 2 100.5950059 63.984825479022 1.04689075 0 0 0
2001 2 98.890022850001 66.937972179022 1.04689075 0 0 0
2002 2 97.18502275000101 69.891148410489 1.04689075 0 0 0
2003 2 95.480022650001 72.844265579022 1.04689075 0 0 0
2004 2 100.5950059 69.891148410489 1.04689075 0 0 0
2005 2 98.890022850001 72.844265579022 1.04689075 0 0 0
2006 1 95.4800056 74.813069420978 1.04689075 0 0 0
2007 1 93.774988449999 77.766186589511 1.04689075 0 0 0
2008 1 92.07000540000001 80.719333289511 1.04689075 0 0 0
2009 1 90.36498824999902 83.672479989511 1.04689075 0 0 0
2010 1 88.65998814999901 86.625656220978 1.04689075 0 0 0
2011 1 98.889988749999 74.813069420978 1.04689075 0 0 0
2012 1 97.18498864999901 77.766186589511 1.04689075 0 0 0
2013 1 95.4800056 80.719333289511 1.04689075 0 0 0
2014 1 93.774988449999 83.672479989511 1.04689075 0 0 0
2015 1 92.07000540000001 86.625656220978 1.04689075 0 0 0
2016 1 100.594988849999 77.766186589511 1.04689075 0 0 0
2017 1 98.889988749999 80.719333289511 1.04689075 0 0 0
2018 1 97.18498864999901 83.672479989511 1.04689075 0 0 0
2019 1 95.4800056 86.625656220978 1.04689075 0 0 0
2020 1 100.594988849999 83.672479989511 1.04689075 0 0 0
2021 1 98.889988749999 86.625656220978 1.04689075 0 0 0
2022 2 93.7750055 75.797412279022 1.04689075 0 0 0
2023 2 92.07000540000001 78.750588510489 1.04689075 0 0 0
2024 2 90.365022350001 81.703735210489 1.04689075 0 0 0
2577 1 69.90500410000001 89.578802920978 1.04689075 0 0 0
2578 1 68.200004 92.531920089511 1.04689075 0 0 0
2579 1 73.314987249999 89.578802920978 1.04689075 0 0 0
2580 1 71.609987149999 92.531920089511 1.04689075 0 0 0
2581 1 69.90500410000001 95.48506678951101 1.04689075 0 0 0
2582 1 68.200004 98.438243020978 1.04689075 0 0 0
2583 1 76.724987449999 89.578802920978 1.04689075 0 0 0
2584 1 75.0200044 92.531920089511 1.04689075 0 0 0
2585 1 73.314987249999 95.48506678951101 1.04689075 0 0 0
2586 1 71.609987149999 98.438243020978 1.04689075 0 0 0
2587 1 69.90500410000001 101.391360189511 1.04689075 0 0 0
2588 1 80.134987649999 89.578802920978 1.04689075 0 0 0
2589 1 78.4300046 92.531920089511 1.04689075 0 0 0
2590 1 76.724987449999 95.48506678951101 1.04689075 0 0 0
2591 1 75.0200044 98.438243020978 1.04689075 0 0 0
2592 1 73.314987249999 101.391360189511 1.04689075 0 0 0
2593 1 83.544987849999 89.578802920978 1.04689075 0 0 0
2594 1 81.83998774999901 92.531920089511 1.04689075 0 0 0
2595 1 80.134987649999 95.48506678951101 1.04689075 0 0 0
2596 1 78.4300046 98.438243020978 1.04689075 0 0 0
2597 1 76.724987449999 101.391360189511 1.04689075 0 0 0
2598 2 68.200004 90.563175310489 1.04689075 0 0 0
2599 2 71.6100042 90.563175310489 1.04689075 0 0 0
2600 2 69.905021150001 93.516292479022 1.04689075 0 0 0
2601 2 68.200004 96.469439179022 1.04689075 0 0 0
2602 2 75.0200044 90.563175310489 1.04689075 0 0 0
2603 2 73.315021350001 93.516292479022 1.04689075 0 0 0
2604 2 71.6100042 96.469439179022 1.04689075 0 0 0
2605 2 69.905021150001 99.422615410489 1.04689075 0 0 0
2606 2 68.200004 102.375732579022 1.04689075 0 0 0
2607 2 78.43002165000101 90.563175310489 1.04689075 0 0 0
2608 2 76.72500450000001 93.516292479022 1.04689075 0 0 0
2609 2 75.0200044 96.469439179022 1.04689075 0 0 0
2610 2 73.315021350001 99.422615410489 1.04689075 0 0 0
2611 2 71.6100042 102.375732579022 1.04689075 0 0 0
2612 2 81.84002185000101 90.563175310489 1.04689075 0 0 0
2613 2 80.135021750001 93.516292479022 1.04689075 0 0 0
2614 2 78.43002165000101 96.469439179022 1.04689075 0 0 0
2615 2 76.72500450000001 99.422615410489 1.04689075 0 0 0
2616 2 75.0200044 102.375732579022 1.04689075 0 0 0
2617 1 68.200004 104.344536420978 1.04689075 0 0 0
2618 1 71.609987149999 104.344536420978 1.04689075 0 0 0
2619 1 69.90500410000001 107.297653589511 1.04689075 0 0 0
2620 1 68.200004 110.250800289511 1.04689075 0 0 0
2621 1 75.0200044 104.344536420978 1.04689075 0 0 0
2622 1 73.314987249999 107.297653589511 1.04689075 0 0 0
2623 1 71.609987149999 110.250800289511 1.04689075 0 0 0
2624 1 69.90500410000001 113.203946989511 1.04689075 0 0 0
2625 1 68.200004 116.15712322097801 1.04689075 0 0 0
2626 2 69.905021150001 105.328879279022 1.04689075 0 0 0
2627 2 68.200004 108.282055510489 1.04689075 0 0 0
2628 2 73.315021350001 105.328879279022 1.04689075 0 0 0
2629 2 71.6100042 108.282055510489 1.04689075 0 0 0
2630 2 69.905021150001 111.235202210489 1.04689075 0 0 0
2631 2 68.200004 114.188348910489 1.04689075 0 0 0
2632 1 83.544987849999 95.48506678951101 1.04689075 0 0 0
2633 1 81.83998774999901 98.438243020978 1.04689075 0 0 0
2634 1 80.134987649999 101.391360189511 1.04689075 0 0 0
2635 2 100.5950059 117.14146607902201 1.04689075 0 0 0
2636 2 83.54500490000001 93.516292479022 1.04689075 0 0 0
2637 2 81.84002185000101 96.469439179022 1.04689075 0 0 0
2638 2 80.135021750001 99.422615410489 1.04689075 0 0 0
2639 2 78.43002165000101 102.375732579022 1.04689075 0 0 0
2640 2 97.18502275000101 117.14146607902201 1.04689075 0 0 0
2641 2 98.890022850001 114.188348910489 1.04689075 0 0 0
2642 1 78.4300046 104.344536420978 1.04689075 0 0 0
2643 1 76.724987449999 107.297653589511 1.04689075 0 0 0
2644 1 75.0200044 110.250800289511 1.04689075 0 0 0
2645 1 73.314987249999 113.203946989511 1.04689075 0 0 0
2646 1 71.609987149999 116.15712322097801 1.04689075 0 0 0
2647 2 100.5950059 111.235202210489 1.04689075 0 0 0
2648 1 80.134987649999 107.297653589511 1.04689075 0 0 0
2649 1 78.4300046 110.250800289511 1.04689075 0 0 0
2650 1 76.724987449999 113.203946989511 1.04689075 0 0 0
2651 1 75.0200044 116.15712322097801 1.04689075 0 0 0
2652 2 93.7750055 117.14146607902201 1.04689075 0 0 0
2653 1 81.83998774999901 110.250800289511 1.04689075 0 0 0
2654 1 80.134987649999 113.203946989511 1.04689075 0 0 0
2655 1 78.4300046 116.15712322097801 1.04689075 0 0 0
2656 1 83.544987849999 113.203946989511 1.04689075 0 0 0
2657 1 81.83998774999901 116.15712322097801 1.04689075 0 0 0
2658 2 76.72500450000001 105.328879279022 1.04689075 0 0 0
2659 2 75.0200044 108.282055510489 1.04689075 0 0 0
2660 2 73.315021350001 111.235202210489 1.04689075 0 0 0
2661 2 71.6100042 114.188348910489 1.04689075 0 0 0
2662 2 69.905021150001 117.14146607902201 1.04689075 0 0 0
2663 2 80.135021750001 105.328879279022 1.04689075 0 0 0
2664 2 78.43002165000101 108.282055510489 1.04689075 0 0 0
2665 2 76.72500450000001 111.235202210489 1.04689075 0 0 0
2666 2 75.0200044 114.188348910489 1.04689075 0 0 0
2667 2 73.315021350001 117.14146607902201 1.04689075 0 0 0
2668 2 95.480022650001 114.188348910489 1.04689075 0 0 0
2669 2 81.84002185000101 108.282055510489 1.04689075 0 0 0
2670 2 80.135021750001 111.235202210489 1.04689075 0 0 0
2671 2 78.43002165000101 114.188348910489 1.04689075 0 0 0
2672 2 76.72500450000001 117.14146607902201 1.04689075 0 0 0
2673 2 83.54500490000001 111.235202210489 1.04689075 0 0 0
2674 2 81.84002185000101 114.188348910489 1.04689075 0 0 0
2675 2 80.135021750001 117.14146607902201 1.04689075 0 0 0
2676 2 83.54500490000001 117.14146607902201 1.04689075 0 0 0
2677 1 86.95500510000001 89.578802920978 1.04689075 0 0 0
2678 1 85.25000500000002 92.531920089511 1.04689075 0 0 0
2679 1 90.36498824999902 89.578802920978 1.04689075 0 0 0
2680 1 88.65998814999901 92.531920089511 1.04689075 0 0 0
2681 1 86.95500510000001 95.48506678951101 1.04689075 0 0 0
2682 2 97.18502275000101 111.235202210489 1.04689075 0 0 0
2683 1 93.774988449999 89.578802920978 1.04689075 0 0 0
2684 1 92.07000540000001 92.531920089511 1.04689075 0 0 0
2685 1 90.36498824999902 95.48506678951101 1.04689075 0 0 0
2686 1 88.65998814999901 98.438243020978 1.04689075 0 0 0
2687 2 98.890022850001 108.282055510489 1.04689075 0 0 0
2688 1 97.18498864999901 89.578802920978 1.04689075 0 0 0
2689 1 95.4800056 92.531920089511 1.04689075 0 0 0
2690 1 93.774988449999 95.48506678951101 1.04689075 0 0 0
2691 1 92.07000540000001 98.438243020978 1.04689075 0 0 0
2692 1 90.36498824999902 101.391360189511 1.04689075 0 0 0
2693 1 100.594988849999 89.578802920978 1.04689075 0 0 0
2694 1 98.889988749999 92.531920089511 1.04689075 0 0 0
2695 1 97.18498864999901 95.48506678951101 1.04689075 0 0 0
2696 1 95.4800056 98.438243020978 1.04689075 0 0 0
2697 1 93.774988449999 101.391360189511 1.04689075 0 0 0
2698 2 85.25000500000002 90.563175310489 1.04689075 0 0 0
2699 2 88.6600052 90.563175310489 1.04689075 0 0 0
2700 2 86.95502215000101 93.516292479022 1.04689075 0 0 0
2701 2 85.25000500000002 96.469439179022 1.04689075 0 0 0
2702 2 92.07000540000001 90.563175310489 1.04689075 0 0 0
2703 2 90.365022350001 93.516292479022 1.04689075 0 0 0
2704 2 88.6600052 96.469439179022 1.04689075 0 0 0
2705 2 100.5950059 105.328879279022 1.04689075 0 0 0
2706 2 90.365022350001 117.14146607902201 1.04689075 0 0 0
2707 2 95.480022650001 90.563175310489 1.04689075 0 0 0
2708 2 93.7750055 93.516292479022 1.04689075 0 0 0
2709 2 92.07000540000001 96.469439179022 1.04689075 0 0 0
2710 2 90.365022350001 99.422615410489 1.04689075 0 0 0
2711 2 92.07000540000001 114.188348910489 1.04689075 0 0 0
2712 2 98.890022850001 90.563175310489 1.04689075 0 0 0
2713 2 97.18502275000101 93.516292479022 1.04689075 0 0 0
2714 2 95.480022650001 96.469439179022 1.04689075 0 0 0
2715 2 93.7750055 99.422615410489 1.04689075 0 0 0
2716 2 92.07000540000001 102.375732579022 1.04689075 0 0 0
2717 2 93.7750055 111.235202210489 1.04689075 0 0 0
2718 2 95.480022650001 108.282055510489 1.04689075 0 0 0
2719 2 97.18502275000101 105.328879279022 1.04689075 0 0 0
2720 1 85.25000500000002 110.250800289511 1.04689075 0 0 0
2721 1 92.07000540000001 104.344536420978 1.04689075 0 0 0
2722 1 90.36498824999902 107.297653589511 1.04689075 0 0 0
2723 1 88.65998814999901 110.250800289511 1.04689075 0 0 0
2724 1 86.95500510000001 113.203946989511 1.04689075 0 0 0
2725 1 85.25000500000002 116.15712322097801 1.04689075 0 0 0
2726 2 86.95502215000101 117.14146607902201 1.04689075 0 0 0
2727 2 88.6600052 114.188348910489 1.04689075 0 0 0
2728 2 90.365022350001 105.328879279022 1.04689075 0 0 0
2729 2 88.6600052 108.282055510489 1.04689075 0 0 0
2730 2 86.95502215000101 111.235202210489 1.04689075 0 0 0
2731 2 85.25000500000002 114.188348910489 1.04689075 0 0 0
2732 1 100.594988849999 95.48506678951101 1.04689075 0 0 0
2733 1 98.889988749999 98.438243020978 1.04689075 0 0 0
2734 1 97.18498864999901 101.391360189511 1.04689075 0 0 0
2735 1 100.594988849999 101.391360189511 1.04689075 0 0 0
2736 2 100.5950059 93.516292479022 1.04689075 0 0 0
2737 2 98.890022850001 96.469439179022 1.04689075 0 0 0
2738 2 97.18502275000101 99.422615410489 1.04689075 0 0 0
2739 2 95.480022650001 102.375732579022 1.04689075 0 0 0
2740 2 100.5950059 99.422615410489 1.04689075 0 0 0
2741 2 98.890022850001 102.375732579022 1.04689075 0 0 0
2742 1 95.4800056 104.344536420978 1.04689075 0 0 0
2743 1 93.774988449999 107.297653589511 1.04689075 0 0 0
2744 1 92.07000540000001 110.250800289511 1.04689075 0 0 0
2745 1 90.36498824999902 113.203946989511 1.04689075 0 0 0
2746 1 88.65998814999901 116.15712322097801 1.04689075 0 0 0
2747 1 98.889988749999 104.344536420978 1.04689075 0 0 0
2748 1 97.18498864999901 107.297653589511 1.04689075 0 0 0
2749 1 95.4800056 110.250800289511 1.04689075 0 0 0
2750 1 93.774988449999 113.203946989511 1.04689075 0 0 0
2751 1 92.07000540000001 116.15712322097801 1.04689075 0 0 0
2752 1 100.594988849999 107.297653589511 1.04689075 0 0 0
2753 1 98.889988749999 110.250800289511 1.04689075 0 0 0
2754 1 97.18498864999901 113.203946989511 1.04689075 0 0 0
2755 1 95.4800056 116.15712322097801 1.04689075 0 0 0
2756 1 100.594988849999 113.203946989511 1.04689075 0 0 0
2757 1 98.889988749999 116.15712322097801 1.04689075 0 0 0
2758 2 93.7750055 105.328879279022 1.04689075 0 0 0
2759 2 92.07000540000001 108.282055510489 1.04689075 0 0 0
2760 2 90.365022350001 111.235202210489 1.04689075 0 0 0
3313 1 69.90500410000001 119.110269920978 1.04689075 0 0 0
3314 1 68.200004 122.063387089511 1.04689075 0 0 0
3315 1 73.314987249999 119.110269920978 1.04689075 0 0 0
3316 1 71.609987149999 122.063387089511 1.04689075 0 0 0
3317 1 69.90500410000001 125.016533789511 1.04689075 0 0 0
3318 1 68.200004 127.969710020978 1.04689075 0 0 0
3319 1 76.724987449999 119.110269920978 1.04689075 0 0 0
3320 1 75.0200044 122.063387089511 1.04689075 0 0 0
3321 1 73.314987249999 125.016533789511 1.04689075 0 0 0
3322 1 71.609987149999 127.969710020978 1.04689075 0 0 0
3323 1 69.90500410000001 130.922827189511 1.04689075 0 0 0
3324 1 80.134987649999 119.110269920978 1.04689075 0 0 0
3325 1 78.4300046 122.063387089511 1.04689075 0 0 0
3326 1 76.724987449999 125.016533789511 1.04689075 0 0 0
3327 1 75.0200044 127.969710020978 1.04689075 0 0 0
3328 1 73.314987249999 130.922827189511 1.04689075 0 0 0
3329 1 83.544987849999 119.110269920978 1.04689075 0 0 0
3330 1 81.83998774999901 122.063387089511 1.04689075 0 0 0
3331 1 80.134987649999 125.016533789511 1.04689075 0 0 0
3332 1 78.4300046 127.969710020978 1.04689075 0 0 0
3333 1 76.724987449999 130.922827189511 1.04689075 0 0 0
3334 2 68.200004 120.094642310489 1.04689075 0 0 0
3335 2 71.6100042 120.094642310489 1.04689075 0 0 0
3336 2 69.905021150001 123.04775947902199 1.04689075 0 0 0
3337 2 68.200004 126.000906179022 1.04689075 0 0 0
3338 2 75.0200044 120.094642310489 1.04689075 0 0 0
3339 2 73.315021350001 123.04775947902199 1.04689075 0 0 0
3340 2 71.6100042 126.000906179022 1.04689075 0 0 0
3341 2 69.905021150001 128.954082410489 1.04689075 0 0 0
3342 2 68.200004 131.907199579022 1.04689075 0 0 0
3343 2 78.43002165000101 120.094642310489 1.04689075 0 0 0
3344 2 76.72500450000001 123.04775947902199 1.04689075 0 0 0
3345 2 75.0200044 126.000906179022 1.04689075 0 0 0
3346 2 73.315021350001 128.954082410489 1.04689075 0 0 0
3347 2 71.6100042 131.907199579022 1.04689075 0 0 0
3348 2 81.84002185000101 120.094642310489 1.04689075 0 0 0
3349 2 80.135021750001 123.04775947902199 1.04689075 0 0 0
3350 2 78.43002165000101 126.000906179022 1.04689075 0 0 0
3351 2 76.72500450000001 128.954082410489 1.04689075 0 0 0
3352 2 75.0200044 131.907199579022 1.04689075 0 0 0
3353 1 68.200004 133.876003420978 1.04689075 0 0 0
3354 1 71.609987149999 133.876003420978 1.04689075 0 0 0
3355 1 69.90500410000001 136.829120589511 1.04689075 0 0 0
3356 1 68.200004 139.782267289511 1.04689075 0 0 0
3357 1 75.0200044 133.876003420978 1.04689075 0 0 0
3358 1 73.314987249999 136.829120589511 1.04689075 0 0 0
3359 1 71.609987149999 139.782267289511 1.04689075 0 0 0
3360 1 69.90500410000001 142.735413989511 1.04689075 0 0 0
3361 1 68.200004 145.688590220978 1.04689075 0 0 0
3362 2 69.905021150001 134.860346279022 1.04689075 0 0 0
3363 2 68.200004 137.813522510489 1.04689075 0 0 0
3364 2 73.315021350001 134.860346279022 1.04689075 0 0 0
3365 2 71.6100042 137.813522510489 1.04689075 0 0 0
3366 2 69.905021150001 140.766669210489 1.04689075 0 0 0
3367 2 68.200004 143.719815910489 1.04689075 0 0 0
3368 1 83.544987849999 125.016533789511 1.04689075 0 0 0
3369 1 81.83998774999901 127.969710020978 1.04689075 0 0 0
3370 1 80.134987649999 130.922827189511 1.04689075 0 0 0
3371 2 100.5950059 146.672933079022 1.04689075 0 0 0
3372 2 83.54500490000001 123.04775947902199 1.04689075 0 0 0
3373 2 81.84002185000101 126.000906179022 1.04689075 0 0 0
3374 2 80.135021750001 128.954082410489 1.04689075 0 0 0
3375 2 78.43002165000101 131.907199579022 1.04689075 0 0 0
3376 2 97.18502275000101 146.672933079022 1.04689075 0 0 0
3377 2 98.890022850001 143.719815910489 1.04689075 0 0 0
3378 1 78.4300046 133.876003420978 1.04689075 0 0 0
3379 1 76.724987449999 136.829120589511 1.04689075 0 0 0
3380 1 75.0200044 139.782267289511 1.04689075 0 0 0
3381 1 73.314987249999 142.735413989511 1.04689075 0 0 0
3382 1 71.609987149999 145.688590220978 1.04689075 0 0 0
3383 2 100.5950059 140.766669210489 1.04689075 0 0 0
3384 1 80.134987649999 136.829120589511 1.04689075 0 0 0
3385 1 78.4300046 139.782267289511 1.04689075 0 0 0
3386 1 76.724987449999 142.735413989511 1.04689075 0 0 0
3387 1 75.0200044 145.688590220978 1.04689075 0 0 0
3388 2 93.7750055 146.672933079022 1.04689075 0 0 0
3389 1 81.83998774999901 139.782267289511 1.04689075 0 0 0
3390 1 80.134987649999 142.735413989511 1.04689075 0 0 0
3391 1 78.4300046 145.688590220978 1.04689075 0 0 0
3392 1 83.544987849999 142.735413989511 1.04689075 0 0 0
3393 1 81.83998774999901 145.688590220978 1.04689075 0 0 0
3394 2 76.72500450000001 134.860346279022 1.04689075 0 0 0
3395 2 75.0200044 137.813522510489 1.04689075 0 0 0
3396 2 73.315021350001 140.766669210489 1.04689075 0 0 0
3397 2 71.6100042 143.719815910489 1.04689075 0 0 0
3398 2 69.905021150001 146.672933079022 1.04689075 0 0 0
3399 2 80.135021750001 134.860346279022 1.04689075 0 0 0
3400 2 78.43002165000101 137.813522510489 1.04689075 0 0 0
3401 2 76.72500450000001 140.766669210489 1.04689075 0 0 0
3402 2 75.0200044 143.719815910489 1.04689075 0 0 0
3403 2 73.315021350001 146.672933079022 1.04689075 0 0 0
3404 2 95.480022650001 143.719815910489 1.04689075 0 0 0
3405 2 81.84002185000101 137.813522510489 1.04689075 0 0 0
3406 2 80.135021750001 140.766669210489 1.04689075 0 0 0
3407 2 78.43002165000101 143.719815910489 1.04689075 0 0 0
3408 2 76.72500450000001 146.672933079022 1.04689075 0 0 0
3409 2 83.54500490000001 140.766669210489 1.04689075 0 0 0
3410 2 81.84002185000101 143.719815910489 1.04689075 0 0 0
3411 2 80.135021750001 146.672933079022 1.04689075 0 0 0
3412 2 83.54500490000001 146.672933079022 1.04689075 0 0 0
3413 1 86.95500510000001 119.110269920978 1.04689075 0 0 0
3414 1 85.25000500000002 122.063387089511 1.04689075 0 0 0
3415 1 90.36498824999902 119.110269920978 1.04689075 0 0 0
3416 1 88.65998814999901 122.063387089511 1.04689075 0 0 0
3417 1 86.95500510000001 125.016533789511 1.04689075 0 0 0
3418 2 97.18502275000101 140.766669210489 1.04689075 0 0 0
3419 1 93.774988449999 119.110269920978 1.04689075 0 0 0
3420 1 92.07000540000001 122.063387089511 1.04689075 0 0 0
3421 1 90.36498824999902 125.016533789511 1.04689075 0 0 0
3422 1 88.65998814999901 127.969710020978 1.04689075 0 0 0
3423 2 98.890022850001 137.813522510489 1.04689075 0 0 0
3424 1 97.18498864999901 119.110269920978 1.04689075 0 0 0
3425 1 95.4800056 122.063387089511 1.04689075 0 0 0
3426 1 93.774988449999 125.016533789511 1.04689075 0 0 0
3427 1 92.07000540000001 127.969710020978 1.04689075 0 0 0
3428 1 90.36498824999902 130.922827189511 1.04689075 0 0 0
3429 1 100.594988849999 119.110269920978 1.04689075 0 0 0
3430 1 98.889988749999 122.063387089511 1.04689075 0 0 0
3431 1 97.18498864999901 125.016533789511 1.04689075 0 0 0
3432 1 95.4800056 127.969710020978 1.04689075 0 0 0
3433 1 93.774988449999 130.922827189511 1.04689075 0 0 0
3434 2 85.25000500000002 120.094642310489 1.04689075 0 0 0
3435 2 88.6600052 120.094642310489 1.04689075 0 0 0
3436 2 86.95502215000101 123.04775947902199 1.04689075 0 0 0
3437 2 85.25000500000002 126.000906179022 1.04689075 0 0 0
3438 2 92.07000540000001 120.094642310489 1.04689075 0 0 0
3439 2 90.365022350001 123.04775947902199 1.04689075 0 0 0
3440 2 88.6600052 126.000906179022 1.04689075 0 0 0
3441 2 100.5950059 134.860346279022 1.04689075 0 0 0
3442 2 90.365022350001 146.672933079022 1.04689075 0 0 0
3443 2 95.480022650001 120.094642310489 1.04689075 0 0 0
3444 2 93.7750055 123.04775947902199 1.04689075 0 0 0
3445 2 92.07000540000001 126.000906179022 1.04689075 0 0 0
3446 2 90.365022350001 128.954082410489 1.04689075 0 0 0
3447 2 92.07000540000001 143.719815910489 1.04689075 0 0 0
3448 2 98.890022850001 120.094642310489 1.04689075 0 0 0
3449 2 97.18502275000101 123.04775947902199 1.04689075 0 0 0
3450 2 95.480022650001 126.000906179022 1.04689075 0 0 0
3451 2 93.7750055 128.954082410489 1.04689075 0 0 0
3452 2 92.07000540000001 131.907199579022 1.04689075 0 0 0
3453 2 93.7750055 140.766669210489 1.04689075 0 0 0
3454 2 95.480022650001 137.813522510489 1.04689075 0 0 0
3455 2 97.18502275000101 134.860346279022 1.04689075 0 0 0
3456 1 85.25000500000002 139.782267289511 1.04689075 0 0 0
3457 1 92.07000540000001 133.876003420978 1.04689075 0 0 0
3458 1 90.36498824999902 136.829120589511 1.04689075 0 0 0
3459 1 88.65998814999901 139.782267289511 1.04689075 0 0 0
3460 1 86.95500510000001 142.735413989511 1.04689075 0 0 0
3461 1 85.25000500000002 145.688590220978 1.04689075 0 0 0
3462 2 86.95502215000101 146.672933079022 1.04689075 0 0 0
3463 2 88.6600052 143.719815910489 1.04689075 0 0 0
3464 2 90.365022350001 134.860346279022 1.04689075 0 0 0
3465 2 88.6600052 137.813522510489 1.04689075 0 0 0
3466 2 86.95502215000101 140.766669210489 1.04689075 0 0 0
3467 2 85.25000500000002 143.719815910489 1.04689075 0 0 0
3468 1 100.594988849999 125.016533789511 1.04689075 0 0 0
3469 1 98.889988749999 127.969710020978 1.04689075 0 0 0
3470 1 97.18498864999901 130.922827189511 1.04689075 0 0 0
3471 1 100.594988849999 130.922827189511 1.04689075 0 0 0
3472 2 100.5950059 123.04775947902199 1.04689075 0 0 0
3473 2 98.890022850001 126.000906179022 1.04689075 0 0 0
3474 2 97.18502275000101 128.954082410489 1.04689075 0 0 0
3475 2 95.480022650001 131.907199579022 1.04689075 0 0 0
3476 2 100.5950059 128.954082410489 1.04689075 0 0 0
3477 2 98.890022850001 131.907199579022 1.04689075 0 0 0
3478 1 95.4800056 133.876003420978 1.04689075 0 0 0
3479 1 93.774988449999 136.829120589511 1.04689075 0 0 0
3480 1 92.07000540000001 139.782267289511 1.04689075 0 0 0
3481 1 90.36498824999902 142.735413989511 1.04689075 0 0 0
3482 1 88.65998814999901 145.688590220978 1.04689075 0 0 0
3483 1 98.889988749999 133.876003420978 1.04689075 0 0 0
3484 1 97.18498864999901 136.829120589511 1.04689075 0 0 0
3485 1 95.4800056 139.782267289511 1.04689075 0 0 0
3486 1 93.774988449999 142.735413989511 1.04689075 0 0 0
3487 1 92.07000540000001 145.688590220978 1.04689075 0 0 0
3488 1 100.594988849999 136.829120589511 1.04689075 0 0 0
3489 1 98.889988749999 139.782267289511 1.04689075 0 0 0
3490 1 97.18498864999901 142.735413989511 1.04689075 0 0 0
3491 1 95.4800056 145.688590220978 1.04689075 0 0 0
3492 1 100.594988849999 142.735413989511 1.04689075 0 0 0
3493 1 98.889988749999 145.688590220978 1.04689075 0 0 0
3494 2 93.7750055 134.860346279022 1.04689075 0 0 0
3495 2 92.07000540000001 137.813522510489 1.04689075 0 0 0
3496 2 90.365022350001 140.766669210489 1.04689075 0 0 0
4049 1 69.90500410000001 148.641736920978 1.04689075 0 0 0
4050 1 68.200004 151.594854089511 1.04689075 0 0 0
4051 1 73.314987249999 148.641736920978 1.04689075 0 0 0
4052 1 71.609987149999 151.594854089511 1.04689075 0 0 0
4053 1 69.90500410000001 154.54800078951098 1.04689075 0 0 0
4054 1 68.200004 157.501177020978 1.04689075 0 0 0
4055 1 76.724987449999 148.641736920978 1.04689075 0 0 0
4056 1 75.0200044 151.594854089511 1.04689075 0 0 0
4057 1 73.314987249999 154.54800078951098 1.04689075 0 0 0
4058 1 71.609987149999 157.501177020978 1.04689075 0 0 0
4059 1 69.90500410000001 160.454294189511 1.04689075 0 0 0
4060 1 80.134987649999 148.641736920978 1.04689075 0 0 0
4061 1 78.4300046 151.594854089511 1.04689075 0 0 0
4062 1 76.724987449999 154.54800078951098 1.04689075 0 0 0
4063 1 75.0200044 157.501177020978 1.04689075 0 0 0
4064 1 73.314987249999 160.454294189511 1.04689075 0 0 0
4065 1 83.544987849999 148.641736920978 1.04689075 0 0 0
4066 1 81.83998774999901 151.594854089511 1.04689075 0 0 0
4067 1 80.134987649999 154.54800078951098 1.04689075 0 0 0
4068 1 78.4300046 157.501177020978 1.04689075 0 0 0
4069 1 76.724987449999 160.454294189511 1.04689075 0 0 0
4070 2 68.200004 149.626109310489 1.04689075 0 0 0
4071 2 71.6100042 149.626109310489 1.04689075 0 0 0
4072 2 69.905021150001 152.579226479022 1.04689075 0 0 0
4073 2 68.200004 155.532373179022 1.04689075 0 0 0
4074 2 75.0200044 149.626109310489 1.04689075 0 0 0
4075 2 73.315021350001 152.579226479022 1.04689075 0 0 0
4076 2 71.6100042 155.532373179022 1.04689075 0 0 0
4077 2 69.905021150001 158.485549410489 1.04689075 0 0 0
4078 2 68.200004 161.438666579022 1.04689075 0 0 0
4079 2 78.43002165000101 149.626109310489 1.04689075 0 0 0
4080 2 76.72500450000001 152.579226479022 1.04689075 0 0 0
4081 2 75.0200044 155.532373179022 1.04689075 0 0 0
4082 2 73.315021350001 158.485549410489 1.04689075 0 0 0
4083 2 71.6100042 161.438666579022 1.04689075 0 0 0
4084 2 81.84002185000101 149.626109310489 1.04689075 0 0 0
4085 2 80.135021750001 152.579226479022 1.04689075 0 0 0
4086 2 78.43002165000101 155.532373179022 1.04689075 0 0 0
4087 2 76.72500450000001 158.485549410489 1.04689075 0 0 0
4088 2 75.0200044 161.438666579022 1.04689075 0 0 0
4089 1 68.200004 163.407470420978 1.04689075 0 0 0
4090 1 71.609987149999 163.407470420978 1.04689075 0 0 0
4091 1 69.90500410000001 166.360587589511 1.04689075 0 0 0
4092 1 68.200004 169.313734289511 1.04689075 0 0 0
4093 1 75.0200044 163.407470420978 1.04689075 0 0 0
4094 1 73.314987249999 166.360587589511 1.04689075 0 0 0
4095 1 71.609987149999 169.313734289511 1.04689075 0 0 0
4096 1 69.90500410000001 172.26688098951098 1.04689075 0 0 0
4097 1 68.200004 175.220057220978 1.04689075 0 0 0
4098 2 69.905021150001 164.391813279022 1.04689075 0 0 0
4099 2 68.200004 167.344989510489 1.04689075 0 0 0
4100 2 73.315021350001 164.391813279022 1.04689075 0 0 0
4101 2 71.6100042 167.344989510489 1.04689075 0 0 0
4102 2 69.905021150001 170.298136210489 1.04689075 0 0 0
4103 2 68.200004 173.25128291048898 1.04689075 0 0 0
4104 1 83.544987849999 154.54800078951098 1.04689075 0 0 0
4105 1 81.83998774999901 157.501177020978 1.04689075 0 0 0
4106 1 80.134987649999 160.454294189511 1.04689075 0 0 0
4107 2 100.5950059 176.20440007902198 1.04689075 0 0 0
4108 2 83.54500490000001 152.579226479022 1.04689075 0 0 0
4109 2 81.84002185000101 155.532373179022 1.04689075 0 0 0
4110 2 80.135021750001 158.485549410489 1.04689075 0 0 0
4111 2 78.43002165000101 161.438666579022 1.04689075 0 0 0
4112 2 97.18502275000101 176.20440007902198 1.04689075 0 0 0
4113 2 98.890022850001 173.25128291048898 1.04689075 0 0 0
4114 1 78.4300046 163.407470420978 1.04689075 0 0 0
4115 1 76.724987449999 166.360587589511 1.04689075 0 0 0
4116 1 75.0200044 169.313734289511 1.04689075 0 0 0
4117 1 73.314987249999 172.26688098951098 1.04689075 0 0 0
4118 1 71.609987149999 175.220057220978 1.04689075 0 0 0
4119 2 100.5950059 170.298136210489 1.04689075 0 0 0
4120 1 80.134987649999 166.360587589511 1.04689075 0 0 0
4121 1 78.4300046 169.313734289511 1.04689075 0 0 0
4122 1 76.724987449999 172.26688098951098 1.04689075 0 0 0
4123 1 75.0200044 175.220057220978 1.04689075 0 0 0
4124 2 93.7750055 176.20440007902198 1.04689075 0 0 0
4125 1 81.83998774999901 169.313734289511 1.04689075 0 0 0
4126 1 80.134987649999 172.26688098951098 1.04689075 0 0 0
4127 1 78.4300046 175.220057220978 1.04689075 0 0 0
4128 1 83.544987849999 172.26688098951098 1.04689075 0 0 0
4129 1 81.83998774999901 175.220057220978 1.04689075 0 0 0
4130 2 76.72500450000001 164.391813279022 1.04689075 0 0 0
4131 2 75.0200044 167.344989510489 1.04689075 0 0 0
4132 2 73.315021350001 170.298136210489 1.04689075 0 0 0
4133 2 71.6100042 173.25128291048898 1.04689075 0 0 0
4134 2 69.905021150001 176.20440007902198 1.04689075 0 0 0
4135 2 80.135021750001 164.391813279022 1.04689075 0 0 0
4136 2 78.43002165000101 167.344989510489 1.04689075 0 0 0
4137 2 76.72500450000001 170.298136210489 1.04689075 0 0 0
4138 2 75.0200044 173.25128291048898 1.04689075 0 0 0
4139 2 73.315021350001 176.20440007902198 1.04689075 0 0 0
4140 2 95.480022650001 173.25128291048898 1.04689075 0 0 0
4141 2 81.84002185000101 167.344989510489 1.04689075 0 0 0
4142 2 80.135021750001 170.298136210489 1.04689075 0 0 0
4143 2 78.43002165000101 173.25128291048898 1.04689075 0 0 0
4144 2 76.72500450000001 176.20440007902198 1.04689075 0 0 0
4145 2 83.54500490000001 170.298136210489 1.04689075 0 0 0
4146 2 81.84002185000101 173.25128291048898 1.04689075 0 0 0
4147 2 80.135021750001 176.20440007902198 1.04689075 0 0 0
4148 2 83.54500490000001 176.20440007902198 1.04689075 0 0 0
4149 1 86.95500510000001 148.641736920978 1.04689075 0 0 0
4150 1 85.25000500000002 151.594854089511 1.04689075 0 0 0
4151 1 90.36498824999902 148.641736920978 1.04689075 0 0 0
4152 1 88.65998814999901 151.594854089511 1.04689075 0 0 0
4153 1 86.95500510000001 154.54800078951098 1.04689075 0 0 0
4154 2 97.18502275000101 170.298136210489 1.04689075 0 0 0
4155 1 93.774988449999 148.641736920978 1.04689075 0 0 0
4156 1 92.07000540000001 151.594854089511 1.04689075 0 0 0
4157 1 90.36498824999902 154.54800078951098 1.04689075 0 0 0
4158 1 88.65998814999901 157.501177020978 1.04689075 0 0 0
4159 2 98.890022850001 167.344989510489 1.04689075 0 0 0
4160 1 97.18498864999901 148.641736920978 1.04689075 0 0 0
4161 1 95.4800056 151.594854089511 1.04689075 0 0 0
4162 1 93.774988449999 154.54800078951098 1.04689075 0 0 0
4163 1 92.07000540000001 157.501177020978 1.04689075 0 0 0
4164 1 90.36498824999902 160.454294189511 1.04689075 0 0 0
4165 1 100.594988849999 148.641736920978 1.04689075 0 0 0
4166 1 98.889988749999 151.594854089511 1.04689075 0 0 0
4167 1 97.18498864999901 154.54800078951098 1.04689075 0 0 0
4168 1 95.4800056 157.501177020978 1.04689075 0 0 0
4169 1 93.774988449999 160.454294189511 1.04689075 0 0 0
4170 2 85.25000500000002 149.626109310489 1.04689075 0 0 0
4171 2 88.6600052 149.626109310489 1.04689075 0 0 0
4172 2 86.95502215000101 152.579226479022 1.04689075 0 0 0
4173 2 85.25000500000002 155.532373179022 1.04689075 0 0 0
4174 2 92.07000540000001 149.626109310489 1.04689075 0 0 0
4175 2 90.365022350001 152.579226479022 1.04689075 0 0 0
4176 2 88.6600052 155.532373179022 1.04689075 0 0 0
4177 2 100.5950059 164.391813279022 1.04689075 0 0 0
4178 2 90.365022350001 176.20440007902198 1.04689075 0 0 0
4179 2 95.480022650001 149.626109310489 1.04689075 0 0 0
4180 2 93.7750055 152.579226479022 1.04689075 0 0 0
4181 2 92.07000540000001 155.532373179022 1.04689075 0 0 0
4182 2 90.365022350001 158.485549410489 1.04689075 0 0 0
4183 2 92.07000540000001 173.25128291048898 1.04689075 0 0 0
4184 2 98.890022850001 149.626109310489 1.04689075 0 0 0
4185 2 97.18502275000101 152.579226479022 1.04689075 0 0 0
4186 2 95.480022650001 155.532373179022 1.04689075 0 0 0
4187 2 93.7750055 158.485549410489 1.04689075 0 0 0
4188 2 92.07000540000001 161.438666579022 1.04689075 0 0 0
4189 2 93.7750055 170.298136210489 1.04689075 0 0 0
4190 2 95.480022650001 167.344989510489 1.04689075 0 0 0
4191 2 97.18502275000101 164.391813279022 1.04689075 0 0 0
4192 1 85.25000500000002 169.313734289511 1.04689075 0 0 0
4193 1 92.07000540000001 163.407470420978 1.04689075 0 0 0
4194 1 90.36498824999902 166.360587589511 1.04689075 0 0 0
4195 1 88.65998814999901 169.313734289511 1.04689075 0 0 0
4196 1 86.95500510000001 172.26688098951098 1.04689075 0 0 0
4197 1 85.25000500000002 175.220057220978 1.04689075 0 0 0
4198 2 86.95502215000101 176.20440007902198 1.04689075 0 0 0
4199 2 88.6600052 173.25128291048898 1.04689075 0 0 0
4200 2 90.365022350001 164.391813279022 1.04689075 0 0 0
4201 2 88.6600052 167.344989510489 1.04689075 0 0 0
4202 2 86.95502215000101 170.298136210489 1.04689075 0 0 0
4203 2 85.25000500000002 173.25128291048898 1.04689075 0 0 0
4204 1 100.594988849999 154.54800078951098 1.04689075 0 0 0
4205 1 98.889988749999 157.501177020978 1.04689075 0 0 0
4206 1 97.18498864999901 160.454294189511 1.04689075 0 0 0
4207 1 100.594988849999 160.454294189511 1.04689075 0 0 0
4208 2 100.5950059 152.579226479022 1.04689075 0 0 0
4209 2 98.890022850001 155.532373179022 1.04689075 0 0 0
4210 2 97.18502275000101 158.485549410489 1.04689075 0 0 0
4211 2 95.480022650001 161.438666579022 1.04689075 0 0 0
4212 2 100.5950059 158.485549410489 1.04689075 0 0 0
4213 2 98.890022850001 161.438666579022 1.04689075 0 0 0
4214 1 95.4800056 163.407470420978 1.04689075 0 0 0
4215 1 93.774988449999 166.360587589511 1.04689075 0 0 0
4216 1 92.07000540000001 169.313734289511 1.04689075 0 0 0
4217 1 90.36498824999902 172.26688098951098 1.04689075 0 0 0
4218 1 88.65998814999901 175.220057220978 1.04689075 0 0 0
4219 1 98.889988749999 163.407470420978 1.04689075 0 0 0
4220 1 97.18498864999901 166.360587589511 1.04689075 0 0 0
4221 1 95.4800056 169.313734289511 1.04689075 0 0 0
4222 1 93.774988449999 172.26688098951098 1.04689075 0 0 0
4223 1 92.07000540000001 175.220057220978 1.04689075 0 0 0
4224 1 100.594988849999 166.360587589511 1.04689075 0 0 0
4225 1 98.889988749999 169.313734289511 1.04689075 0 0 0
4226 1 97.18498864999901 172.26688098951098 1.04689075 0 0 0
4227 1 95.4800056 175.220057220978 1.04689075 0 0 0
4228 1 100.594988849999 172.26688098951098 1.04689075 0 0 0
4229 1 98.889988749999 175.220057220978 1.04689075 0 0 0
4230 2 93.7750055 164.391813279022 1.04689075 0 0 0
4231 2 92.07000540000001 167.344989510489 1.04689075 0 0 0
4232 2 90.365022350001 170.298136210489 1.04689075 0 0 0
4785 1 69.90500410000001 178.173203920978 1.04689075 0 0 0
4786 1 68.200004 181.126321089511 1.04689075 0 0 0
4787 1 73.314987249999 178.173203920978 1.04689075 0 0 0
4788 1 71.609987149999 181.126321089511 1.04689075 0 0 0
4789 1 69.90500410000001 184.079467789511 1.04689075 0 0 0
4790 1 68.200004 187.032644020978 1.04689075 0 0 0
4791 1 76.724987449999 178.173203920978 1.04689075 0 0 0
4792 1 75.0200044 181.126321089511 1.04689075 0 0 0
4793 1 73.314987249999 184.079467789511 1.04689075 0 0 0
4794 1 71.609987149999 187.032644020978 1.04689075 0 0 0
4795 1 69.90500410000001 189.985761189511 1.04689075 0 0 0
4796 1 80.134987649999 178.173203920978 1.04689075 0 0 0
4797 1 78.4300046 181.126321089511 1.04689075 0 0 0
4798 1 76.724987449999 184.079467789511 1.04689075 0 0 0
4799 1 75.0200044 187.032644020978 1.04689075 0 0 0
4800 1 73.314987249999 189.985761189511 1.04689075 0 0 0
4801 1 83.544987849999 178.173203920978 1.04689075 0 0 0
4802 1 81.83998774999901 181.126321089511 1.04689075 0 0 0
4803 1 80.134987649999 184.079467789511 1.04689075 0 0 0
4804 1 78.4300046 187.032644020978 1.04689075 0 0 0
4805 1 76.724987449999 189.985761189511 1.04689075 0 0 0
4806 2 68.200004 179.15757631048902 1.04689075 0 0 0
4807 2 71.6100042 179.15757631048902 1.04689075 0 0 0
4808 2 69.905021150001 182.11069347902202 1.04689075 0 0 0
4809 2 68.200004 185.063840179022 1.04689075 0 0 0
4810 2 75.0200044 179.15757631048902 1.04689075 0 0 0
4811 2 73.315021350001 182.11069347902202 1.04689075 0 0 0
4812 2 71.6100042 185.063840179022 1.04689075 0 0 0
4813 2 69.905021150001 188.01701641048902 1.04689075 0 0 0
4814 2 68.200004 190.97013357902202 1.04689075 0 0 0
4815 2 78.43002165000101 179.15757631048902 1.04689075 0 0 0
4816 2 76.72500450000001 182.11069347902202 1.04689075 0 0 0
4817 2 75.0200044 185.063840179022 1.04689075 0 0 0
4818 2 73.315021350001 188.01701641048902 1.04689075 0 0 0
4819 2 71.6100042 190.97013357902202 1.04689075 0 0 0
4820 2 81.84002185000101 179.15757631048902 1.04689075 0 0 0
4821 2 80.135021750001 182.11069347902202 1.04689075 0 0 0
4822 2 78.43002165000101 185.063840179022 1.04689075 0 0 0
4823 2 76.72500450000001 188.01701641048902 1.04689075 0 0 0
4824 2 75.0200044 190.97013357902202 1.04689075 0 0 0
4825 1 68.200004 192.93893742097802 1.04689075 0 0 0
4826 1 71.609987149999 192.93893742097802 1.04689075 0 0 0
4827 1 69.90500410000001 195.89205458951102 1.04689075 0 0 0
4828 1 68.200004 198.845201289511 1.04689075 0 0 0
4829 1 75.0200044 192.93893742097802 1.04689075 0 0 0
4830 1 73.314987249999 195.89205458951102 1.04689075 0 0 0
4831 1 71.609987149999 198.845201289511 1.04689075 0 0 0
4832 1 69.90500410000001 201.798347989511 1.04689075 0 0 0
4833 1 68.200004 204.751524220978 1.04689075 0 0 0
4834 2 69.905021150001 193.923280279022 1.04689075 0 0 0
4835 2 68.200004 196.87645651048902 1.04689075 0 0 0
4836 2 73.315021350001 193.923280279022 1.04689075 0 0 0
4837 2 71.6100042 196.87645651048902 1.04689075 0 0 0
4838 2 69.905021150001 199.829603210489 1.04689075 0 0 0
4839 2 68.200004 202.782749910489 1.04689075 0 0 0
4840 1 83.544987849999 184.079467789511 1.04689075 0 0 0
4841 1 81.83998774999901 187.032644020978 1.04689075 0 0 0
4842 1 80.134987649999 189.985761189511 1.04689075 0 0 0
4843 2 100.5950059 205.735867079022 1.04689075 0 0 0
4844 2 83.54500490000001 182.11069347902202 1.04689075 0 0 0
4845 2 81.84002185000101 185.063840179022 1.04689075 0 0 0
4846 2 80.135021750001 188.01701641048902 1.04689075 0 0 0
4847 2 78.43002165000101 190.97013357902202 1.04689075 0 0 0
4848 2 97.18502275000101 205.735867079022 1.04689075 0 0 0
4849 2 98.890022850001 202.782749910489 1.04689075 0 0 0
4850 1 78.4300046 192.93893742097802 1.04689075 0 0 0
4851 1 76.724987449999 195.89205458951102 1.04689075 0 0 0
4852 1 75.0200044 198.845201289511 1.04689075 0 0 0
4853 1 73.314987249999 201.798347989511 1.04689075 0 0 0
4854 1 71.609987149999 204.751524220978 1.04689075 0 0 0
4855 2 100.5950059 199.829603210489 1.04689075 0 0 0
4856 1 80.134987649999 195.89205458951102 1.04689075 0 0 0
4857 1 78.4300046 198.845201289511 1.04689075 0 0 0
4858 1 76.724987449999 201.798347989511 1.04689075 0 0 0
4859 1 75.0200044 204.751524220978 1.04689075 0 0 0
4860 2 93.7750055 205.735867079022 1.04689075 0 0 0
4861 1 81.83998774999901 198.845201289511 1.04689075 0 0 0
4862 1 80.134987649999 201.798347989511 1.04689075 0 0 0
4863 1 78.4300046 204.751524220978 1.04689075 0 0 0
4864 1 83.544987849999 201.798347989511 1.04689075 0 0 0
4865 1 81.83998774999901 204.751524220978 1.04689075 0 0 0
4866 2 76.72500450000001 193.923280279022 1.04689075 0 0 0
4867 2 75.0200044 196.87645651048902 1.04689075 0 0 0
4868 2 73.315021350001 199.829603210489 1.04689075 0 0 0
4869 2 71.6100042 202.782749910489 1.04689075 0 0 0
4870 2 69.905021150001 205.735867079022 1.04689075 0 0 0
4871 2 80.135021750001 193.923280279022 1.04689075 0 0 0
4872 2 78.43002165000101 196.87645651048902 1.04689075 0 0 0
4873 2 76.72500450000001 199.829603210489 1.04689075 0 0 0
4874 2 75.0200044 202.782749910489 1.04689075 0 0 0
4875 2 73.315021350001 205.735867079022 1.04689075 0 0 0
4876 2 95.480022650001 202.782749910489 1.04689075 0 0 0
4877 2 81.84002185000101 196.87645651048902 1.04689075 0 0 0
4878 2 80.135021750001 199.829603210489 1.04689075 0 0 0
4879 2 78.43002165000101 202.782749910489 1.04689075 0 0 0
4880 2 76.72500450000001 205.735867079022 1.04689075 0 0 0
4881 2 83.54500490000001 199.829603210489 1.04689075 0 0 0
4882 2 81.84002185000101 202.782749910489 1.04689075 0 0 0
4883 2 80.135021750001 205.735867079022 1.04689075 0 0 0
4884 2 83.54500490000001 205.735867079022 1.04689075 0 0 0
4885 1 86.95500510000001 178.173203920978 1.04689075 0 0 0
4886 1 85.25000500000002 181.126321089511 1.04689075 0 0 0
4887 1 90.36498824999902 178.173203920978 1.04689075 0 0 0
4888 1 88.65998814999901 181.126321089511 1.04689075 0 0 0
4889 1 86.95500510000001 184.079467789511 1.04689075 0 0 0
4890 2 97.18502275000101 199.829603210489 1.04689075 0 0 0
4891 1 93.774988449999 178.173203920978 1.04689075 0 0 0
4892 1 92.07000540000001 181.126321089511 1.04689075 0 0 0
4893 1 90.36498824999902 184.079467789511 1.04689075 0 0 0
4894 1 88.65998814999901 187.032644020978 1.04689075 0 0 0
4895 2 98.890022850001 196.87645651048902 1.04689075 0 0 0
4896 1 97.18498864999901 178.173203920978 1.04689075 0 0 0
4897 1 95.4800056 181.126321089511 1.04689075 0 0 0
4898 1 93.774988449999 184.079467789511 1.04689075 0 0 0
4899 1 92.07000540000001 187.032644020978 1.04689075 0 0 0
4900 1 90.36498824999902 189.985761189511 1.04689075 0 0 0
4901 1 100.594988849999 178.173203920978 1.04689075 0 0 0
4902 1 98.889988749999 181.126321089511 1.04689075 0 0 0
4903 1 97.18498864999901 184.079467789511 1.04689075 0 0 0
4904 1 95.4800056 187.032644020978 1.04689075 0 0 0
4905 1 93.774988449999 189.985761189511 1.04689075 0 0 0
4906 2 85.25000500000002 179.15757631048902 1.04689075 0 0 0
4907 2 88.6600052 179.15757631048902 1.04689075 0 0 0
4908 2 86.95502215000101 182.11069347902202 1.04689075 0 0 0
4909 2 85.25000500000002 185.063840179022 1.04689075 0 0 0
4910 2 92.07000540000001 179.15757631048902 1.04689075 0 0 0
4911 2 90.365022350001 182.11069347902202 1.04689075 0 0 0
4912 2 88.6600052 185.063840179022 1.04689075 0 0 0
4913 2 100.5950059 193.923280279022 1.04689075 0 0 0
4914 2 90.365022350001 205.735867079022 1.04689075 0 0 0
4915 2 95.480022650001 179.15757631048902 1.04689075 0 0 0
4916 2 93.7750055 182.11069347902202 1.04689075 0 0 0
4917 2 92.07000540000001 185.063840179022 1.04689075 0 0 0
4918 2 90.365022350001 188.01701641048902 1.04689075 0 0 0
4919 2 92.07000540000001 202.782749910489 1.04689075 0 0 0
4920 2 98.890022850001 179.15757631048902 1.04689075 0 0 0
4921 2 97.18502275000101 182.11069347902202 1.04689075 0 0 0
4922 2 95.480022650001 185.063840179022 1.04689075 0 0 0
4923 2 93.7750055 188.01701641048902 1.04689075 0 0 0
4924 2 92.07000540000001 190.97013357902202 1.04689075 0 0 0
4925 2 93.7750055 199.829603210489 1.04689075 0 0 0
4926 2 95.480022650001 196.87645651048902 1.04689075 0 0 0
4927 2 97.18502275000101 193.923280279022 1.04689075 0 0 0
4928 1 85.25000500000002 198.845201289511 1.04689075 0 0 0
4929 1 92.07000540000001 192.93893742097802 1.04689075 0 0 0
4930 1 90.36498824999902 195.89205458951102 1.04689075 0 0 0
4931 1 88.65998814999901 198.845201289511 1.04689075 0 0 0
4932 1 86.95500510000001 201.798347989511 1.04689075 0 0 0
4933 1 85.25000500000002 204.751524220978 1.04689075 0 0 0
4934 2 86.95502215000101 205.735867079022 1.04689075 0 0 0
4935 2 88.6600052 202.782749910489 1.04689075 0 0 0
4936 2 90.365022350001 193.923280279022 1.04689075 0 0 0
4937 2 88.6600052 196.87645651048902 1.04689075 0 0 0
4938 2 86.95502215000101 199.829603210489 1.04689075 0 0 0
4939 2 85.25000500000002 202.782749910489 1.04689075 0 0 0
4940 1 100.594988849999 184.079467789511 1.04689075 0 0 0
4941 1 98.889988749999 187.032644020978 1.04689075 0 0 0
4942 1 97.18498864999901 189.985761189511 1.04689075 0 0 0
4943 1 100.594988849999 189.985761189511 1.04689075 0 0 0
4944 2 100.5950059 182.11069347902202 1.04689075 0 0 0
4945 2 98.890022850001 185.063840179022 1.04689075 0 0 0
4946 2 97.18502275000101 188.01701641048902 1.04689075 0 0 0
4947 2 95.480022650001 190.97013357902202 1.04689075 0 0 0
4948 2 100.5950059 188.01701641048902 1.04689075 0 0 0
4949 2 98.890022850001 190.97013357902202 1.04689075 0 0 0
4950 1 95.4800056 192.93893742097802 1.04689075 0 0 0
4951 1 93.774988449999 195.89205458951102 1.04689075 0 0 0
4952 1 92.07000540000001 198.845201289511 1.04689075 0 0 0
4953 1 90.36498824999902 201.798347989511 1.04689075 0 0 0
4954 1 88.65998814999901 204.751524220978 1.04689075 0 0 0
4955 1 98.889988749999 192.93893742097802 1.04689075 0 0 0
4956 1 97.18498864999901 195.89205458951102 1.04689075 0 0 0
4957 1 95.4800056 198.845201289511 1.04689075 0 0 0
4958 1 93.774988449999 201.798347989511 1.04689075 0 0 0
4959 1 92.07000540000001 204.751524220978 1.04689075 0 0 0
4960 1 100.594988849999 195.89205458951102 1.04689075 0 0 0
4961 1 98.889988749999 198.845201289511 1.04689075 0 0 0
4962 1 97.18498864999901 201.798347989511 1.04689075 0 0 0
4963 1 95.4800056 204.751524220978 1.04689075 0 0 0
4964 1 100.594988849999 201.798347989511 1.04689075 0 0 0
4965 1 98.889988749999 204.751524220978 1.04689075 0 0 0
4966 2 93.7750055 193.923280279022 1.04689075 0 0 0
4967 2 92.07000540000001 196.87645651048902 1.04689075 0 0 0
4968 2 90.365022350001 199.829603210489 1.04689075 0 0 0
5521 1 69.90500410000001 207.704670920978 1.04689075 0 0 0
5522 1 68.200004 210.657788089511 1.04689075 0 0 0
5523 1 73.314987249999 207.704670920978 1.04689075 0 0 0
5524 1 71.609987149999 210.657788089511 1.04689075 0 0 0
5525 1 69.90500410000001 213.610934789511 1.04689075 0 0 0
5526 1 68.200004 216.564111020978 1.04689075 0 0 0
5527 1 76.724987449999 207.704670920978 1.04689075 0 0 0
5528 1 75.0200044 210.657788089511 1.04689075 0 0 0
5529 1 73.314987249999 213.610934789511 1.04689075 0 0 0
5530 1 71.609987149999 216.564111020978 1.04689075 0 0 0
5531 1 69.90500410000001 219.517228189511 1.04689075 0 0 0
5532 1 80.134987649999 207.704670920978 1.04689075 0 0 0
5533 1 78.4300046 210.657788089511 1.04689075 0 0 0
5534 1 76.724987449999 213.610934789511 1.04689075 0 0 0
5535 1 75.0200044 216.564111020978 1.04689075 0 0 0
5536 1 73.314987249999 219.517228189511 1.04689075 0 0 0
5537 1 83.544987849999 207.704670920978 1.04689075 0 0 0
5538 1 81.83998774999901 210.657788089511 1.04689075 0 0 0
5539 1 80.134987649999 213.610934789511 1.04689075 0 0 0
5540 1 78.4300046 216.564111020978 1.04689075 0 0 0
5541 1 76.724987449999 219.517228189511 1.04689075 0 0 0
5542 2 68.200004 208.689043310489 1.04689075 0 0 0
5543 2 71.6100042 208.689043310489 1.04689075 0 0 0
5544 2 69.905021150001 211.642160479022 1.04689075 0 0 0
5545 2 68.200004 214.595307179022 1.04689075 0 0 0
5546 2 75.0200044 208.689043310489 1.04689075 0 0 0
5547 2 73.315021350001 211.642160479022 1.04689075 0 0 0
5548 2 71.6100042 214.595307179022 1.04689075 0 0 0
5549 2 69.905021150001 217.548483410489 1.04689075 0 0 0
5550 2 68.200004 220.501600579022 1.04689075 0 0 0
5551 2 78.43002165000101 208.689043310489 1.04689075 0 0 0
5552 2 76.72500450000001 211.642160479022 1.04689075 0 0 0
5553 2 75.0200044 214.595307179022 1.04689075 0 0 0
5554 2 73.315021350001 217.548483410489 1.04689075 0 0 0
5555 2 71.6100042 220.501600579022 1.04689075 0 0 0
5556 2 81.84002185000101 208.689043310489 1.04689075 0 0 0
5557 2 80.135021750001 211.642160479022 1.04689075 0 0 0
5558 2 78.43002165000101 214.595307179022 1.04689075 0 0 0
5559 2 76.72500450000001 217.548483410489 1.04689075 0 0 0
5560 2 75.0200044 220.501600579022 1.04689075 0 0 0
5561 1 68.200004 222.470404420978 1.04689075 0 0 0
5562 1 71.609987149999 222.470404420978 1.04689075 0 0 0
5563 1 69.90500410000001 225.423521589511 1.04689075 0 0 0
5564 1 68.200004 228.376668289511 1.04689075 0 0 0
5565 1 75.0200044 222.470404420978 1.04689075 0 0 0
5566 1 73.314987249999 225.423521589511 1.04689075 0 0 0
5567 1 71.609987149999 228.376668289511 1.04689075 0 0 0
5568 1 69.90500410000001 231.329814989511 1.04689075 0 0 0
5569 1 68.200004 234.282991220978 1.04689075 0 0 0
5570 2 69.905021150001 223.454747279022 1.04689075 0 0 0
5571 2 68.200004 226.407923510489 1.04689075 0 0 0
5572 2 73.315021350001 223.454747279022 1.04689075 0 0 0
5573 2 71.6100042 226.407923510489 1.04689075 0 0 0
5574 2 69.905021150001 229.361070210489 1.04689075 0 0 0
5575 2 68.200004 232.314216910489 1.04689075 0 0 0
5576 1 83.544987849999 213.610934789511 1.04689075 0 0 0
5577 1 81.83998774999901 216.564111020978 1.04689075 0 0 0
5578 1 80.134987649999 219.517228189511 1.04689075 0 0 0
5579 2 100.5950059 235.267334079022 1.04689075 0 0 0
5580 2 83.54500490000001 211.642160479022 1.04689075 0 0 0
5581 2 81.84002185000101 214.595307179022 1.04689075 0 0 0
5582 2 80.135021750001 217.548483410489 1.04689075 0 0 0
5583 2 78.43002165000101 220.501600579022 1.04689075 0 0 0
5584 2 97.18502275000101 235.267334079022 1.04689075 0 0 0
5585 2 98.890022850001 232.314216910489 1.04689075 0 0 0
5586 1 78.4300046 222.470404420978 1.04689075 0 0 0
5587 1 76.724987449999 225.423521589511 1.04689075 0 0 0
5588 1 75.0200044 228.376668289511 1.04689075 0 0 0
5589 1 73.314987249999 231.329814989511 1.04689075 0 0 0
5590 1 71.609987149999 234.282991220978 1.04689075 0 0 0
5591 2 100.5950059 229.361070210489 1.04689075 0 0 0
5592 1 80.134987649999 225.423521589511 1.04689075 0 0 0
5593 1 78.4300046 228.376668289511 1.04689075 0 0 0
5594 1 76.724987449999 231.329814989511 1.04689075 0 0 0
5595 1 75.0200044 234.282991220978 1.04689075 0 0 0
5596 2 93.7750055 235.267334079022 1.04689075 0 0 0
5597 1 81.83998774999901 228.376668289511 1.04689075 0 0 0
5598 1 80.134987649999 231.329814989511 1.04689075 0 0 0
5599 1 78.4300046 234.282991220978 1.04689075 0 0 0
5600 1 83.544987849999 231.329814989511 1.04689075 0 0 0
5601 1 81.83998774999901 234.282991220978 1.04689075 0 0 0
5602 2 76.72500450000001 223.454747279022 1.04689075 0 0 0
5603 2 75.0200044 226.407923510489 1.04689075 0 0 0
5604 2 73.315021350001 229.361070210489 1.04689075 0 0 0
5605 2 71.6100042 232.314216910489 1.04689075 0 0 0
5606 2 69.905021150001 235.267334079022 1.04689075 0 0 0
5607 2 80.135021750001 223.454747279022 1.04689075 0 0 0
5608 2 78.43002165000101 226.407923510489 1.04689075 0 0 0
5609 2 76.72500450000001 229.361070210489 1.04689075 0 0 0
5610 2 75.0200044 232.314216910489 1.04689075 0 0 0
5611 2 73.315021350001 235.267334079022 1.04689075 0 0 0
5612 2 95.480022650001 232.314216910489 1.04689075 0 0 0
5613 2 81.84002185000101 226.407923510489 1.04689075 0 0 0
5614 2 80.135021750001 229.361070210489 1.04689075 0 0 0
5615 2 78.43002165000101 232.314216910489 1.04689075 0 0 0
5616 2 76.72500450000001 235.267334079022 1.04689075 0 0 0
5617 2 83.54500490000001 229.361070210489 1.04689075 0 0 0
5618 2 81.84002185000101 232.314216910489 1.04689075 0 0 0
5619 2 80.135021750001 235.267334079022 1.04689075 0 0 0
5620 2 83.54500490000001 235.267334079022 1.04689075 0 0 0
5621 1 86.95500510000001 207.704670920978 1.04689075 0 0 0
5622 1 85.25000500000002 210.657788089511 1.04689075 0 0 0
5623 1 90.36498824999902 207.704670920978 1.04689075 0 0 0
5624 1 88.65998814999901 210.657788089511 1.04689075 0 0 0
5625 1 86.95500510000001 213.610934789511 1.04689075 0 0 0
5626 2 97.18502275000101 229.361070210489 1.04689075 0 0 0
5627 1 93.774988449999 207.704670920978 1.04689075 0 0 0
5628 1 92.07000540000001 210.657788089511 1.04689075 0 0 0
5629 1 90.36498824999902 213.610934789511 1.04689075 0 0 0
5630 1 88.65998814999901 216.564111020978 1.04689075 0 0 0
5631 2 98.890022850001 226.407923510489 1.04689075 0 0 0
5632 1 97.18498864999901 207.704670920978 1.04689075 0 0 0
5633 1 95.4800056 210.657788089511 1.04689075 0 0 0
5634 1 93.774988449999 213.610934789511 1.04689075 0 0 0
5635 1 92.07000540000001 216.564111020978 1.04689075 0 0 0
5636 1 90.36498824999902 219.517228189511 1.04689075 0 0 0
5637 1 100.594988849999 207.704670920978 1.04689075 0 0 0
5638 1 98.889988749999 210.657788089511 1.04689075 0 0 0
5639 1 97.18498864999901 213.610934789511 1.04689075 0 0 0
5640 1 95.4800056 216.564111020978 1.04689075 0 0 0
5641 1 93.774988449999 219.517228189511 1.04689075 0 0 0
5642 2 85.25000500000002 208.689043310489 1.04689075 0 0 0
5643 2 88.6600052 208.689043310489 1.04689075 0 0 0
5644 2 86.95502215000101 211.642160479022 1.04689075 0 0 0
5645 2 85.25000500000002 214.595307179022 1.04689075 0 0 0
5646 2 92.07000540000001 208.689043310489 1.04689075 0 0 0
5647 2 90.365022350001 211.642160479022 1.04689075 0 0 0
5648 2 88.6600052 214.595307179022 1.04689075 0 0 0
5649 2 100.5950059 223.454747279022 1.04689075 0 0 0
5650 2 90.365022350001 235.267334079022 1.04689075 0 0 0
5651 2 95.480022650001 208.689043310489 1.04689075 0 0 0
5652 2 93.7750055 211.642160479022 1.04689075 0 0 0
5653 2 92.07000540000001 214.595307179022 1.04689075 0 0 0
5654 2 90.365022350001 217.548483410489 1.04689075 0 0 0
5655 2 92.07000540000001 232.314216910489 1.04689075 0 0 0
5656 2 98.890022850001 208.689043310489 1.04689075 0 0 0
5657 2 97.18502275000101 211.642160479022 1.04689075 0 0 0
5658 2 95.480022650001 214.595307179022 1.04689075 0 0 0
5659 2 93.7750055 217.548483410489 1.04689075 0 0 0
5660 2 92.07000540000001 220.501600579022 1.04689075 0 0 0
5661 2 93.7750055 229.361070210489 1.04689075 0 0 0
5662 2 95.480022650001 226.407923510489 1.04689075 0 0 0
5663 2 97.18502275000101 223.454747279022 1.04689075 0 0 0
5664 1 85.25000500000002 228.376668289511 1.04689075 0 0 0
5665 1 92.07000540000001 222.470404420978 1.04689075 0 0 0
5666 1 90.36498824999902 225.423521589511 1.04689075 0 0 0
5667 1 88.65998814999901 228.376668289511 1.04689075 0 0 0
5668 1 86.95500510000001 231.329814989511 1.04689075 0 0 0
5669 1 85.25000500000002 234.282991220978 1.04689075 0 0 0
5670 2 86.95502215000101 235.267334079022 1.04689075 0 0 0
5671 2 88.6600052 232.314216910489 1.04689075 0 0 0
5672 2 90.365022350001 223.454747279022 1.04689075 0 0 0
5673 2 88.6600052 226.407923510489 1.04689075 0 0 0
5674 2 86.95502215000101 229.361070210489 1.04689075 0 0 0
5675 2 85.25000500000002 232.314216910489 1.04689075 0 0 0
5676 1 100.594988849999 213.610934789511 1.04689075 0 0 0
5677 1 98.889988749999 216.564111020978 1.04689075 0 0 0
5678 1 97.18498864999901 219.517228189511 1.04689075 0 0 0
5679 1 100.594988849999 219.517228189511 1.04689075 0 0 0
5680 2 100.5950059 211.642160479022 1.04689075 0 0 0
5681 2 98.890022850001 214.595307179022 1.04689075 0 0 0
5682 2 97.18502275000101 217.548483410489 1.04689075 0 0 0
5683 2 95.480022650001 220.501600579022 1.04689075 0 0 0
5684 2 100.5950059 217.548483410489 1.04689075 0 0 0
5685 2 98.890022850001 220.501600579022 1.04689075 0 0 0
5686 1 95.4800056 222.470404420978 1.04689075 0 0 0
5687 1 93.774988449999 225.423521589511 1.04689075 0 0 0
5688 1 92.07000540000001 228.376668289511 1.04689075 0 0 0
5689 1 90.36498824999902 231.329814989511 1.04689075 0 0 0
5690 1 88.65998814999901 234.282991220978 1.04689075 0 0 0
5691 1 98.889988749999 222.470404420978 1.04689075 0 0 0
5692 1 97.18498864999901 225.423521589511 1.04689075 0 0 0
5693 1 95.4800056 228.376668289511 1.04689075 0 0 0
5694 1 93.774988449999 231.329814989511 1.04689075 0 0 0
5695 1 92.07000540000001 234.282991220978 1.04689075 0 0 0
5696 1 100.594988849999 225.423521589511 1.04689075 0 0 0
5697 1 98.889988749999 228.376668289511 1.04689075 0 0 0
5698 1 97.18498864999901 231.329814989511 1.04689075 0 0 0
5699 1 95.4800056 234.282991220978 1.04689075 0 0 0
5700 1 100.594988849999 231.329814989511 1.04689075 0 0 0
5701 1 98.889988749999 234.282991220978 1.04689075 0 0 0
5702 2 93.7750055 223.454747279022 1.04689075 0 0 0
5703 2 92.07000540000001 226.407923510489 1.04689075 0 0 0
5704 2 90.365022350001 229.361070210489 1.04689075 0 0 0
6257 1 69.90500410000001 237.236137920978 1.04689075 0 0 0
6258 1 68.200004 240.189255089511 1.04689075 0 0 0
6259 1 73.314987249999 237.236137920978 1.04689075 0 0 0
6260 1 71.609987149999 240.189255089511 1.04689075 0 0 0
6261 1 69.90500410000001 243.14240178951098 1.04689075 0 0 0
6262 1 68.200004 246.095578020978 1.04689075 0 0 0
6263 1 76.724987449999 237.236137920978 1.04689075 0 0 0
6264 1 75.0200044 240.189255089511 1.04689075 0 0 0
6265 1 73.314987249999 243.14240178951098 1.04689075 0 0 0
6266 1 71.609987149999 246.095578020978 1.04689075 0 0 0
6267 1 69.90500410000001 249.048695189511 1.04689075 0 0 0
6268 1 80.134987649999 237.236137920978 1.04689075 0 0 0
6269 1 78.4300046 240.189255089511 1.04689075 0 0 0
6270 1 76.724987449999 243.14240178951098 1.04689075 0 0 0
6271 1 75.0200044 246.095578020978 1.04689075 0 0 0
6272 1 73.314987249999 249.048695189511 1.04689075 0 0 0
6273 1 83.544987849999 237.236137920978 1.04689075 0 0 0
6274 1 81.83998774999901 240.189255089511 1.04689075 0 0 0
6275 1 80.134987649999 243.14240178951098 1.04689075 0 0 0
6276 1 78.4300046 246.095578020978 1.04689075 0 0 0
6277 1 76.724987449999 249.048695189511 1.04689075 0 0 0
6278 2 68.200004 238.220510310489 1.04689075 0 0 0
6279 2 71.6100042 238.220510310489 1.04689075 0 0 0
6280 2 69.905021150001 241.173627479022 1.04689075 0 0 0
6281 2 68.200004 244.126774179022 1.04689075 0 0 0
6282 2 75.0200044 238.220510310489 1.04689075 0 0 0
6283 2 73.315021350001 241.173627479022 1.04689075 0 0 0
6284 2 71.6100042 244.126774179022 1.04689075 0 0 0
6285 2 69.905021150001 247.079950410489 1.04689075 0 0 0
6286 2 68.200004 250.033067579022 1.04689075 0 0 0
6287 2 78.43002165000101 238.220510310489 1.04689075 0 0 0
6288 2 76.72500450000001 241.173627479022 1.04689075 0 0 0
6289 2 75.0200044 244.126774179022 1.04689075 0 0 0
6290 2 73.315021350001 247.079950410489 1.04689075 0 0 0
6291 2 71.6100042 250.033067579022 1.04689075 0 0 0
6292 2 81.84002185000101 238.220510310489 1.04689075 0 0 0
6293 2 80.135021750001 241.173627479022 1.04689075 0 0 0
6294 2 78.43002165000101 244.126774179022 1.04689075 0 0 0
6295 2 76.72500450000001 247.079950410489 1.04689075 0 0 0
6296 2 75.0200044 250.033067579022 1.04689075 0 0 0
6297 1 68.200004 252.001871420978 1.04689075 0 0 0
6298 1 71.609987149999 252.001871420978 1.04689075 0 0 0
6299 1 69.90500410000001 254.954988589511 1.04689075 0 0 0
6300 1 68.200004 257.908135289511 1.04689075 0 0 0
6301 1 75.0200044 252.001871420978 1.04689075 0 0 0
6302 1 73.314987249999 254.954988589511 1.04689075 0 0 0
6303 1 71.609987149999 257.908135289511 1.04689075 0 0 0
6304 1 69.90500410000001 260.861281989511 1.04689075 0 0 0
6305 1 68.200004 263.814458220978 1.04689075 0 0 0
6306 2 69.905021150001 252.986214279022 1.04689075 0 0 0
6307 2 68.200004 255.939390510489 1.04689075 0 0 0
6308 2 73.315021350001 252.986214279022 1.04689075 0 0 0
6309 2 71.6100042 255.939390510489 1.04689075 0 0 0
6310 2 69.905021150001 258.89253721048897 1.04689075 0 0 0
6311 2 68.200004 261.845683910489 1.04689075 0 0 0
6312 1 83.544987849999 243.14240178951098 1.04689075 0 0 0
6313 1 81.83998774999901 246.095578020978 1.04689075 0 0 0
6314 1 80.134987649999 249.048695189511 1.04689075 0 0 0
6315 2 100.5950059 264.798801079022 1.04689075 0 0 0
6316 2 83.54500490000001 241.173627479022 1.04689075 0 0 0
6317 2 81.84002185000101 244.126774179022 1.04689075 0 0 0
6318 2 80.135021750001 247.079950410489 1.04689075 0 0 0
6319 2 78.43002165000101 250.033067579022 1.04689075 0 0 0
6320 2 97.18502275000101 264.798801079022 1.04689075 0 0 0
6321 2 98.890022850001 261.845683910489 1.04689075 0 0 0
6322 1 78.4300046 252.001871420978 1.04689075 0 0 0
6323 1 76.724987449999 254.954988589511 1.04689075 0 0 0
6324 1 75.0200044 257.908135289511 1.04689075 0 0 0
6325 1 73.314987249999 260.861281989511 1.04689075 0 0 0
6326 1 71.609987149999 263.814458220978 1.04689075 0 0 0
6327 2 100.5950059 258.89253721048897 1.04689075 0 0 0
6328 1 80.134987649999 254.954988589511 1.04689075 0 0 0
6329 1 78.4300046 257.908135289511 1.04689075 0 0 0
6330 1 76.724987449999 260.861281989511 1.04689075 0 0 0
6331 1 75.0200044 263.814458220978 1.04689075 0 0 0
6332 2 93.7750055 264.798801079022 1.04689075 0 0 0
6333 1 81.83998774999901 257.908135289511 1.04689075 0 0 0
6334 1 80.134987649999 260.861281989511 1.04689075 0 0 0
6335 1 78.4300046 263.814458220978 1.04689075 0 0 0
6336 1 83.544987849999 260.861281989511 1.04689075 0 0 0
6337 1 81.83998774999901 263.814458220978 1.04689075 0 0 0
6338 2 76.72500450000001 252.986214279022 1.04689075 0 0 0
6339 2 75.0200044 255.939390510489 1.04689075 0 0 0
6340 2 73.315021350001 258.89253721048897 1.04689075 0 0 0
6341 2 71.6100042 261.845683910489 1.04689075 0 0 0
6342 2 69.905021150001 264.798801079022 1.04689075 0 0 0
6343 2 80.135021750001 252.986214279022 1.04689075 0 0 0
6344 2 78.43002165000101 255.939390510489 1.04689075 0 0 0
6345 2 76.72500450000001 258.89253721048897 1.04689075 0 0 0
6346 2 75.0200044 261.845683910489 1.04689075 0 0 0
6347 2 73.315021350001 264.798801079022 1.04689075 0 0 0
6348 2 95.480022650001 261.845683910489 1.04689075 0 0 0
6349 2 81.84002185000101 255.939390510489 1.04689075 0 0 0
6350 2 80.135021750001 258.89253721048897 1.04689075 0 0 0
6351 2 78.43002165000101 261.845683910489 1.04689075 0 0 0
6352 2 76.72500450000001 264.798801079022 1.04689075 0 0 0
6353 2 83.54500490000001 258.89253721048897 1.04689075 0 0 0
6354 2 81.84002185000101 261.845683910489 1.04689075 0 0 0
6355 2 80.135021750001 264.798801079022 1.04689075 0 0 0
6356 2 83.54500490000001 264.798801079022 1.04689075 0 0 0
6357 1 86.95500510000001 237.236137920978 1.04689075 0 0 0
6358 1 85.25000500000002 240.189255089511 1.04689075 0 0 0
6359 1 90.36498824999902 237.236137920978 1.04689075 0 0 0
6360 1 88.65998814999901 240.189255089511 1.04689075 0 0 0
6361 1 86.95500510000001 243.14240178951098 1.04689075 0 0 0
6362 2 97.18502275000101 258.89253721048897 1.04689075 0 0 0
6363 1 93.774988449999 237.236137920978 1.04689075 0 0 0
6364 1 92.07000540000001 240.189255089511 1.04689075 0 0 0
6365 1 90.36498824999902 243.14240178951098 1.04689075 0 0 0
6366 1 88.65998814999901 246.095578020978 1.04689075 0 0 0
6367 2 98.890022850001 255.939390510489 1.04689075 0 0 0
6368 1 97.18498864999901 237.236137920978 1.04689075 0 0 0
6369 1 95.4800056 240.189255089511 1.04689075 0 0 0
6370 1 93.774988449999 243.14240178951098 1.04689075 0 0 0
6371 1 92.07000540000001 246.095578020978 1.04689075 0 0 0
6372 1 90.36498824999902 249.048695189511 1.04689075 0 0 0
6373 1 100.594988849999 237.236137920978 1.04689075 0 0 0
6374 1 98.889988749999 240.189255089511 1.04689075 0 0 0
6375 1 97.18498864999901 243.14240178951098 1.04689075 0 0 0
6376 1 95.4800056 246.095578020978 1.04689075 0 0 0
6377 1 93.774988449999 249.048695189511 1.04689075 0 0 0
6378 2 85.25000500000002 238.220510310489 1.04689075 0 0 0
6379 2 88.6600052 238.220510310489 1.04689075 0 0 0
6380 2 86.95502215000101 241.173627479022 1.04689075 0 0 0
6381 2 85.25000500000002 244.126774179022 1.04689075 0 0 0
6382 2 92.07000540000001 238.220510310489 1.04689075 0 0 0
6383 2 90.365022350001 241.173627479022 1.04689075 0 0 0
6384 2 88.6600052 244.126774179022 1.04689075 0 0 0
6385 2 100.5950059 252.986214279022 1.04689075 0 0 0
6386 2 90.365022350001 264.798801079022 1.04689075 0 0 0
6387 2 95.480022650001 238.220510310489 1.04689075 0 0 0
6388 2 93.7750055 241.173627479022 1.04689075 0 0 0
6389 2 92.07000540000001 244.126774179022 1.04689075 0 0 0
6390 2 90.365022350001 247.079950410489 1.04689075 0 0 0
6391 2 92.07000540000001 261.845683910489 1.04689075 0 0 0
6392 2 98.890022850001 238.220510310489 1.04689075 0 0 0
6393 2 97.18502275000101 241.173627479022 1.04689075 0 0 0
6394 2 95.480022650001 244.126774179022 1.04689075 0 0 0
6395 2 93.7750055 247.079950410489 1.04689075 0 0 0
6396 2 92.07000540000001 250.033067579022 1.04689075 0 0 0
6397 2 93.7750055 258.89253721048897 1.04689075 0 0 0
6398 2 95.480022650001 255.939390510489 1.04689075 0 0 0
6399 2 97.18502275000101 252.986214279022 1.04689075 0 0 0
6400 1 85.25000500000002 257.908135289511 1.04689075 0 0 0
6401 1 92.07000540000001 252.001871420978 1.04689075 0 0 0
6402 1 90.36498824999902 254.954988589511 1.04689075 0 0 0
6403 1 88.65998814999901 257.908135289511 1.04689075 0 0 0
6404 1 86.95500510000001 260.861281989511 1.04689075 0 0 0
6405 1 85.25000500000002 263.814458220978 1.04689075 0 0 0
6406 2 86.95502215000101 264.798801079022 1.04689075 0 0 0
6407 2 88.6600052 261.845683910489 1.04689075 0 0 0
6408 2 90.365022350001 252.986214279022 1.04689075 0 0 0
6409 2 88.6600052 255.939390510489 1.04689075 0 0 0
6410 2 86.95502215000101 258.89253721048897 1.04689075 0 0 0
6411 2 85.25000500000002 261.845683910489 1.04689075 0 0 0
6412 1 100.594988849999 243.14240178951098 1.04689075 0 0 0
6413 1 98.889988749999 246.095578020978 1.04689075 0 0 0
6414 1 97.18498864999901 249.048695189511 1.04689075 0 0 0
6415 1 100.594988849999 249.048695189511 1.04689075 0 0 0
6416 2 100.5950059 241.173627479022 1.04689075 0 0 0
6417 2 98.890022850001 244.126774179022 1.04689075 0 0 0
6418 2 97.18502275000101 247.079950410489 1.04689075 0 0 0
6419 2 95.480022650001 250.033067579022 1.04689075 0 0 0
6420 2 100.5950059 247.079950410489 1.04689075 0 0 0
6421 2 98.890022850001 250.033067579022 1.04689075 0 0 0
6422 1 95.4800056 252.001871420978 1.04689075 0 0 0
6423 1 93.774988449999 254.954988589511 1.04689075 0 0 0
6424 1 92.07000540000001 257.908135289511 1.04689075 0 0 0
6425 1 90.36498824999902 260.861281989511 1.04689075 0 0 0
6426 1 88.65998814999901 263.814458220978 1.04689075 0 0 0
6427 1 98.889988749999 252.001871420978 1.04689075 0 0 0
6428 1 97.18498864999901 254.954988589511 1.04689075 0 0 0
6429 1 95.4800056 257.908135289511 1.04689075 0 0 0
6430 1 93.774988449999 260.861281989511 1.04689075 0 0 0
6431 1 92.07000540000001 263.814458220978 1.04689075 0 0 0
6432 1 100.594988849999 254.954988589511 1.04689075 0 0 0
6433 1 98.889988749999 257.908135289511 1.04689075 0 0 0
6434 1 97.18498864999901 260.861281989511 1.04689075 0 0 0
6435 1 95.4800056 263.814458220978 1.04689075 0 0 0
6436 1 100.594988849999 260.861281989511 1.04689075 0 0 0
6437 1 98.889988749999 263.814458220978 1.04689075 0 0 0
6438 2 93.7750055 252.986214279022 1.04689075 0 0 0
6439 2 92.07000540000001 255.939390510489 1.04689075 0 0 0
6440 2 90.365022350001 258.89253721048897 1.04689075 0 0 0
6993 1 69.90500410000001 266.767604920978 1.04689075 0 0 0
6994 1 68.200004 269.720722089511 1.04689075 0 0 0
6995 1 73.314987249999 266.767604920978 1.04689075 0 0 0
6996 1 71.609987149999 269.720722089511 1.04689075 0 0 0
6997 1 69.90500410000001 272.673868789511 1.04689075 0 0 0
6998 1 68.200004 275.627045020978 1.04689075 0 0 0
6999 1 76.724987449999 266.767604920978 1.04689075 0 0 0
7000 1 75.0200044 269.720722089511 1.04689075 0 0 0
7001 1 73.314987249999 272.673868789511 1.04689075 0 0 0
7002 1 71.609987149999 275.627045020978 1.04689075 0 0 0
7003 1 69.90500410000001 278.58016218951104 1.04689075 0 0 0
7004 1 80.134987649999 266.767604920978 1.04689075 0 0 0
7005 1 78.4300046 269.720722089511 1.04689075 0 0 0
7006 1 76.724987449999 272.673868789511 1.04689075 0 0 0
7007 1 75.0200044 275.627045020978 1.04689075 0 0 0
7008 1 73.314987249999 278.58016218951104 1.04689075 0 0 0
7009 1 83.544987849999 266.767604920978 1.04689075 0 0 0
7010 1 81.83998774999901 269.720722089511 1.04689075 0 0 0
7011 1 80.134987649999 272.673868789511 1.04689075 0 0 0
7012 1 78.4300046 275.627045020978 1.04689075 0 0 0
7013 1 76.724987449999 278.58016218951104 1.04689075 0 0 0
7014 2 68.200004 267.751977310489 1.04689075 0 0 0
7015 2 71.6100042 267.751977310489 1.04689075 0 0 0
7016 2 69.905021150001 270.705094479022 1.04689075 0 0 0
7017 2 68.200004 273.658241179022 1.04689075 0 0 0
7018 2 75.0200044 267.751977310489 1.04689075 0 0 0
7019 2 73.315021350001 270.705094479022 1.04689075 0 0 0
7020 2 71.6100042 273.658241179022 1.04689075 0 0 0
7021 2 69.905021150001 276.611417410489 1.04689075 0 0 0
7022 2 68.200004 279.564534579022 1.04689075 0 0 0
7023 2 78.43002165000101 267.751977310489 1.04689075 0 0 0
7024 2 76.72500450000001 270.705094479022 1.04689075 0 0 0
7025 2 75.0200044 273.658241179022 1.04689075 0 0 0
7026 2 73.315021350001 276.611417410489 1.04689075 0 0 0
7027 2 71.6100042 279.564534579022 1.04689075 0 0 0
7028 2 81.84002185000101 267.751977310489 1.04689075 0 0 0
7029 2 80.135021750001 270.705094479022 1.04689075 0 0 0
7030 2 78.43002165000101 273.658241179022 1.04689075 0 0 0
7031 2 76.72500450000001 276.611417410489 1.04689075 0 0 0
7032 2 75.0200044 279.564534579022 1.04689075 0 0 0
7033 1 68.200004 281.533338420978 1.04689075 0 0 0
7034 1 71.609987149999 281.533338420978 1.04689075 0 0 0
7035 1 69.90500410000001 284.486455589511 1.04689075 0 0 0
7036 1 68.200004 287.439602289511 1.04689075 0 0 0
7037 1 75.0200044 281.533338420978 1.04689075 0 0 0
7038 1 73.314987249999 284.486455589511 1.04689075 0 0 0
7039 1 71.609987149999 287.439602289511 1.04689075 0 0 0
7040 1 69.90500410000001 290.392748989511 1.04689075 0 0 0
7041 1 68.200004 293.345925220978 1.04689075 0 0 0
7042 2 69.905021150001 282.517681279022 1.04689075 0 0 0
7043 2 68.200004 285.470857510489 1.04689075 0 0 0
7044 2 73.315021350001 282.517681279022 1.04689075 0 0 0
7045 2 71.6100042 285.470857510489 1.04689075 0 0 0
7046 2 69.905021150001 288.424004210489 1.04689075 0 0 0
7047 2 68.200004 291.37715091048904 1.04689075 0 0 0
7048 1 83.544987849999 272.673868789511 1.04689075 0 0 0
7049 1 81.83998774999901 275.627045020978 1.04689075 0 0 0
7050 1 80.134987649999 278.58016218951104 1.04689075 0 0 0
7051 2 100.5950059 294.330268079022 1.04689075 0 0 0
7052 2 83.54500490000001 270.705094479022 1.04689075 0 0 0
7053 2 81.84002185000101 273.658241179022 1.04689075 0 0 0
7054 2 80.135021750001 276.611417410489 1.04689075 0 0 0
7055 2 78.43002165000101 279.564534579022 1.04689075 0 0 0
7056 2 97.18502275000101 294.330268079022 1.04689075 0 0 0
7057 2 98.890022850001 291.37715091048904 1.04689075 0 0 0
7058 1 78.4300046 281.533338420978 1.04689075 0 0 0
7059 1 76.724987449999 284.486455589511 1.04689075 0 0 0
7060 1 75.0200044 287.439602289511 1.04689075 0 0 0
7061 1 73.314987249999 290.392748989511 1.04689075 0 0 0
7062 1 71.609987149999 293.345925220978 1.04689075 0 0 0
7063 2 100.5950059 288.424004210489 1.04689075 0 0 0
7064 1 80.134987649999 284.486455589511 1.04689075 0 0 0
7065 1 78.4300046 287.439602289511 1.04689075 0 0 0
7066 1 76.724987449999 290.392748989511 1.04689075 0 0 0
7067 1 75.0200044 293.345925220978 1.04689075 0 0 0
7068 2 93.7750055 294.330268079022 1.04689075 0 0 0
7069 1 81.83998774999901 287.439602289511 1.04689075 0 0 0
7070 1 80.134987649999 290.392748989511 1.04689075 0 0 0
7071 1 78.4300046 293.345925220978 1.04689075 0 0 0
7072 1 83.544987849999 290.392748989511 1.04689075 0 0 0
7073 1 81.83998774999901 293.345925220978 1.04689075 0 0 0
7074 2 76.72500450000001 282.517681279022 1.04689075 0 0 0
7075 2 75.0200044 285.470857510489 1.04689075 0 0 0
7076 2 73.315021350001 288.424004210489 1.04689075 0 0 0
7077 2 71.6100042 291.37715091048904 1.04689075 0 0 0
7078 2 69.905021150001 294.330268079022 1.04689075 0 0 0
7079 2 80.135021750001 282.517681279022 1.04689075 0 0 0
7080 2 78.43002165000101 285.470857510489 1.04689075 0 0 0
7081 2 76.72500450000001 288.424004210489 1.04689075 0 0 0
7082 2 75.0200044 291.37715091048904 1.04689075 0 0 0
7083 2 73.315021350001 294.330268079022 1.04689075 0 0 0
7084 2 95.480022650001 291.37715091048904 1.04689075 0 0 0
7085 2 81.84002185000101 285.470857510489 1.04689075 0 0 0
7086 2 80.135021750001 288.424004210489 1.04689075 0 0 0
7087 2 78.43002165000101 291.37715091048904 1.04689075 0 0 0
7088 2 76.72500450000001 294.330268079022 1.04689075 0 0 0
7089 2 83.54500490000001 288.424004210489 1.04689075 0 0 0
7090 2 81.84002185000101 291.37715091048904 1.04689075 0 0 0
7091 2 80.135021750001 294.330268079022 1.04689075 0 0 0
7092 2 83.54500490000001 294.330268079022 1.04689075 0 0 0
7093 1 86.95500510000001 266.767604920978 1.04689075 0 0 0
7094 1 85.25000500000002 269.720722089511 1.04689075 0 0 0
7095 1 90.36498824999902 266.767604920978 1.04689075 0 0 0
7096 1 88.65998814999901 269.720722089511 1.04689075 0 0 0
7097 1 86.95500510000001 272.673868789511 1.04689075 0 0 0
7098 2 97.18502275000101 288.424004210489 1.04689075 0 0 0
7099 1 93.774988449999 266.767604920978 1.04689075 0 0 0
7100 1 92.07000540000001 269.720722089511 1.04689075 0 0 0
7101 1 90.36498824999902 272.673868789511 1.04689075 0 0 0
7102 1 88.65998814999901 275.627045020978 1.04689075 0 0 0
7103 2 98.890022850001 285.470857510489 1.04689075 0 0 0
7104 1 97.18498864999901 266.767604920978 1.04689075 0 0 0
7105 1 95.4800056 269.720722089511 1.04689075 0 0 0
7106 1 93.774988449999 272.673868789511 1.04689075 0 0 0
7107 1 92.07000540000001 275.627045020978 1.04689075 0 0 0
7108 1 90.36498824999902 278.58016218951104 1.04689075 0 0 0
7109 1 100.594988849999 266.767604920978 1.04689075 0 0 0
7110 1 98.889988749999 269.720722089511 1.04689075 0 0 0
7111 1 97.18498864999901 272.673868789511 1.04689075 0 0 0
7112 1 95.4800056 275.627045020978 1.04689075 0 0 0
7113 1 93.774988449999 278.58016218951104 1.04689075 0 0 0
7114 2 85.25000500000002 267.751977310489 1.04689075 0 0 0
7115 2 88.6600052 267.751977310489 1.04689075 0 0 0
7116 2 86.95502215000101 270.705094479022 1.04689075 0 0 0
7117 2 85.25000500000002 273.658241179022 1.04689075 0 0 0
7118 2 92.07000540000001 267.751977310489 1.04689075 0 0 0
7119 2 90.365022350001 270.705094479022 1.04689075 0 0 0
7120 2 88.6600052 273.658241179022 1.04689075 0 0 0
7121 2 100.5950059 282.517681279022 1.04689075 0 0 0
7122 2 90.365022350001 294.330268079022 1.04689075 0 0 0
7123 2 95.480022650001 267.751977310489 1.04689075 0 0 0
7124 2 93.7750055 270.705094479022 1.04689075 0 0 0
7125 2 92.07000540000001 273.658241179022 1.04689075 0 0 0
7126 2 90.365022350001 276.611417410489 1.04689075 0 0 0
7127 2 92.07000540000001 291.37715091048904 1.04689075 0 0 0
7128 2 98.890022850001 267.751977310489 1.04689075 0 0 0
7129 2 97.18502275000101 270.705094479022 1.04689075 0 0 0
7130 2 95.480022650001 273.658241179022 1.04689075 0 0 0
7131 2 93.7750055 276.611417410489 1.04689075 0 0 0
7132 2 92.07000540000001 279.564534579022 1.04689075 0 0 0
7133 2 93.7750055 288.424004210489 1.04689075 0 0 0
7134 2 95.480022650001 285.470857510489 1.04689075 0 0 0
7135 2 97.18502275000101 282.517681279022 1.04689075 0 0 0
7136 1 85.25000500000002 287.439602289511 1.04689075 0 0 0
7137 1 92.07000540000001 281.533338420978 1.04689075 0 0 0
7138 1 90.36498824999902 284.486455589511 1.04689075 0 0 0
7139 1 88.65998814999901 287.439602289511 1.04689075 0 0 0
7140 1 86.95500510000001 290.392748989511 1.04689075 0 0 0
7141 1 85.25000500000002 293.345925220978 1.04689075 0 0 0
7142 2 86.95502215000101 294.330268079022 1.04689075 0 0 0
7143 2 88.6600052 291.37715091048904 1.04689075 0 0 0
7144 2 90.365022350001 282.517681279022 1.04689075 0 0 0
7145 2 88.6600052 285.470857510489 1.04689075 0 0 0
7146 2 86.95502215000101 288.424004210489 1.04689075 0 0 0
7147 2 85.25000500000002 291.37715091048904 1.04689075 0 0 0
7148 1 100.594988849999 272.673868789511 1.04689075 0 0 0
7149 1 98.889988749999 275.627045020978 1.04689075 0 0 0
7150 1 97.18498864999901 278.58016218951104 1.04689075 0 0 0
7151 1 100.594988849999 278.58016218951104 1.04689075 0 0 0
7152 2 100.5950059 270.705094479022 1.04689075 0 0 0
7153 2 98.890022850001 273.658241179022 1.04689075 0 0 0
7154 2 97.18502275000101 276.611417410489 1.04689075 0 0 0
7155 2 95.480022650001 279.564534579022 1.04689075 0 0 0
7156 2 100.5950059 276.611417410489 1.04689075 0 0 0
7157 2 98.890022850001 279.564534579022 1.04689075 0 0 0
7158 1 95.4800056 281.533338420978 1.04689075 0 0 0
7159 1 93.774988449999 284.486455589511 1.04689075 0 0 0
7160 1 92.07000540000001 287.439602289511 1.04689075 0 0 0
7161 1 90.36498824999902 290.392748989511 1.04689075 0 0 0
7162 1 88.65998814999901 293.345925220978 1.04689075 0 0 0
7163 1 98.889988749999 281.533338420978 1.04689075 0 0 0
7164 1 97.18498864999901 284.486455589511 1.04689075 0 0 0
7165 1 95.4800056 287.439602289511 1.04689075 0 0 0
7166 1 93.774988449999 290.392748989511 1.04689075 0 0 0
7167 1 92.07000540000001 293.345925220978 1.04689075 0 0 0
7168 1 100.594988849999 284.486455589511 1.04689075 0 0 0
7169 1 98.889988749999 287.439602289511 1.04689075 0 0 0
7170 1 97.18498864999901 290.392748989511 1.04689075 0 0 0
7171 1 95.4800056 293.345925220978 1.04689075 0 0 0
7172 1 100.594988849999 290.392748989511 1.04689075 0 0 0
7173 1 98.889988749999 293.345925220978 1.04689075 0 0 0
7174 2 93.7750055 282.517681279022 1.04689075 0 0 0
7175 2 92.07000540000001 285.470857510489 1.04689075 0 0 0
7176 2 90.365022350001 288.424004210489 1.04689075 0 0 0
7729 1 69.90500410000001 296.29907192097795 1.04689075 0 0 0
7730 1 68.200004 299.252189089511 1.04689075 0 0 0
7731 1 73.314987249999 296.29907192097795 1.04689075 0 0 0
7732 1 71.609987149999 299.252189089511 1.04689075 0 0 0
7733 1 69.90500410000001 302.20533578951097 1.04689075 0 0 0
7734 1 68.200004 305.158512020978 1.04689075 0 0 0
7735 1 76.724987449999 296.29907192097795 1.04689075 0 0 0
7736 1 75.0200044 299.252189089511 1.04689075 0 0 0
7737 1 73.314987249999 302.20533578951097 1.04689075 0 0 0
7738 1 71.609987149999 305.158512020978 1.04689075 0 0 0
7739 1 69.90500410000001 308.11162918951095 1.04689075 0 0 0
7740 1 80.134987649999 296.29907192097795 1.04689075 0 0 0
7741 1 78.4300046 299.252189089511 1.04689075 0 0 0
7742 1 76.724987449999 302.20533578951097 1.04689075 0 0 0
7743 1 75.0200044 305.158512020978 1.04689075 0 0 0
7744 1 73.314987249999 308.11162918951095 1.04689075 0 0 0
7745 1 83.544987849999 296.29907192097795 1.04689075 0 0 0
7746 1 81.83998774999901 299.252189089511 1.04689075 0 0 0
7747 1 80.134987649999 302.20533578951097 1.04689075 0 0 0
7748 1 78.4300046 305.158512020978 1.04689075 0 0 0
7749 1 76.724987449999 308.11162918951095 1.04689075 0 0 0
7750 2 68.200004 297.28344431048896 1.04689075 0 0 0
7751 2 71.6100042 297.28344431048896 1.04689075 0 0 0
7752 2 69.905021150001 300.236561479022 1.04689075 0 0 0
7753 2 68.200004 303.189708179022 1.04689075 0 0 0
7754 2 75.0200044 297.28344431048896 1.04689075 0 0 0
7755 2 73.315021350001 300.236561479022 1.04689075 0 0 0
7756 2 71.6100042 303.189708179022 1.04689075 0 0 0
7757 2 69.905021150001 306.142884410489 1.04689075 0 0 0
7758 2 68.200004 309.09600157902196 1.04689075 0 0 0
7759 2 78.43002165000101 297.28344431048896 1.04689075 0 0 0
7760 2 76.72500450000001 300.236561479022 1.04689075 0 0 0
7761 2 75.0200044 303.189708179022 1.04689075 0 0 0
7762 2 73.315021350001 306.142884410489 1.04689075 0 0 0
7763 2 71.6100042 309.09600157902196 1.04689075 0 0 0
7764 2 81.84002185000101 297.28344431048896 1.04689075 0 0 0
7765 2 80.135021750001 300.236561479022 1.04689075 0 0 0
7766 2 78.43002165000101 303.189708179022 1.04689075 0 0 0
7767 2 76.72500450000001 306.142884410489 1.04689075 0 0 0
7768 2 75.0200044 309.09600157902196 1.04689075 0 0 0
7769 1 68.200004 311.06480542097796 1.04689075 0 0 0
7770 1 71.609987149999 311.06480542097796 1.04689075 0 0 0
7771 1 69.90500410000001 314.017922589511 1.04689075 0 0 0
7772 1 68.200004 316.971069289511 1.04689075 0 0 0
7773 1 75.0200044 311.06480542097796 1.04689075 0 0 0
7774 1 73.314987249999 314.017922589511 1.04689075 0 0 0
7775 1 71.609987149999 316.971069289511 1.04689075 0 0 0
7776 1 69.90500410000001 319.92421598951097 1.04689075 0 0 0
7777 1 68.200004 322.877392220978 1.04689075 0 0 0
7778 2 69.905021150001 312.049148279022 1.04689075 0 0 0
7779 2 68.200004 315.00232451048896 1.04689075 0 0 0
7780 2 73.315021350001 312.049148279022 1.04689075 0 0 0
7781 2 71.6100042 315.00232451048896 1.04689075 0 0 0
7782 2 69.905021150001 317.95547121048895 1.04689075 0 0 0
7783 2 68.200004 320.908617910489 1.04689075 0 0 0
7784 1 83.544987849999 302.20533578951097 1.04689075 0 0 0
7785 1 81.83998774999901 305.158512020978 1.04689075 0 0 0
7786 1 80.134987649999 308.11162918951095 1.04689075 0 0 0
7787 2 100.5950059 323.86173507902197 1.04689075 0 0 0
7788 2 83.54500490000001 300.236561479022 1.04689075 0 0 0
7789 2 81.84002185000101 303.189708179022 1.04689075 0 0 0
7790 2 80.135021750001 306.142884410489 1.04689075 0 0 0
7791 2 78.43002165000101 309.09600157902196 1.04689075 0 0 0
7792 2 97.18502275000101 323.86173507902197 1.04689075 0 0 0
7793 2 98.890022850001 320.908617910489 1.04689075 0 0 0
7794 1 78.4300046 311.06480542097796 1.04689075 0 0 0
7795 1 76.724987449999 314.017922589511 1.04689075 0 0 0
7796 1 75.0200044 316.971069289511 1.04689075 0 0 0
7797 1 73.314987249999 319.92421598951097 1.04689075 0 0 0
7798 1 71.609987149999 322.877392220978 1.04689075 0 0 0
7799 2 100.5950059 317.95547121048895 1.04689075 0 0 0
7800 1 80.134987649999 314.017922589511 1.04689075 0 0 0
7801 1 78.4300046 316.971069289511 1.04689075 0 0 0
7802 1 76.724987449999 319.92421598951097 1.04689075 0 0 0
7803 1 75.0200044 322.877392220978 1.04689075 0 0 0
7804 2 93.7750055 323.86173507902197 1.04689075 0 0 0
7805 1 81.83998774999901 316.971069289511 1.04689075 0 0 0
7806 1 80.134987649999 319.92421598951097 1.04689075 0 0 0
7807 1 78.4300046 322.877392220978 1.04689075 0 0 0
7808 1 83.544987849999 319.92421598951097 1.04689075 0 0 0
7809 1 81.83998774999901 322.877392220978 1.04689075 0 0 0
7810 2 76.72500450000001 312.049148279022 1.04689075 0 0 0
7811 2 75.0200044 315.00232451048896 1.04689075 0 0 0
7812 2 73.315021350001 317.95547121048895 1.04689075 0 0 0
7813 2 71.6100042 320.908617910489 1.04689075 0 0 0
7814 2 69.905021150001 323.86173507902197 1.04689075 0 0 0
7815 2 80.135021750001 312.049148279022 1.04689075 0 0 0
7816 2 78.43002165000101 315.00232451048896 1.04689075 0 0 0
7817 2 76.72500450000001 317.95547121048895 1.04689075 0 0 0
7818 2 75.0200044 320.908617910489 1.04689075 0 0 0
7819 2 73.315021350001 323.86173507902197 1.04689075 0 0 0
7820 2 95.480022650001 320.908617910489 1.04689075 0 0 0
7821 2 81.84002185000101 315.00232451048896 1.04689075 0 0 0
7822 2 80.135021750001 317.95547121048895 1.04689075 0 0 0
7823 2 78.43002165000101 320.908617910489 1.04689075 0 0 0
7824 2 76.72500450000001 323.86173507902197 1.04689075 0 0 0
7825 2 83.54500490000001 317.95547121048895 1.04689075 0 0 0
7826 2 81.84002185000101 320.908617910489 1.04689075 0 0 0
7827 2 80.135021750001 323.86173507902197 1.04689075 0 0 0
7828 2 83.54500490000001 323.86173507902197 1.04689075 0 0 0
7829 1 86.95500510000001 296.29907192097795 1.04689075 0 0 0
7830 1 85.25000500000002 299.252189089511 1.04689075 0 0 0
7831 1 90.36498824999902 296.29907192097795 1.04689075 0 0 0
7832 1 88.65998814999901 299.252189089511 1.04689075 0 0 0
7833 1 86.95500510000001 302.20533578951097 1.04689075 0 0 0
7834 2 97.18502275000101 317.95547121048895 1.04689075 0 0 0
7835 1 93.774988449999 296.29907192097795 1.04689075 0 0 0
7836 1 92.07000540000001 299.252189089511 1.04689075 0 0 0
7837 1 90.36498824999902 302.20533578951097 1.04689075 0 0 0
7838 1 88.65998814999901 305.158512020978 1.04689075 0 0 0
7839 2 98.890022850001 315.00232451048896 1.04689075 0 0 0
7840 1 97.18498864999901 296.29907192097795 1.04689075 0 0 0
7841 1 95.4800056 299.252189089511 1.04689075 0 0 0
7842 1 93.774988449999 302.20533578951097 1.04689075 0 0 0
7843 1 92.07000540000001 305.158512020978 1.04689075 0 0 0
7844 1 90.36498824999902 308.11162918951095 1.04689075 0 0 0
7845 1 100.594988849999 296.29907192097795 1.04689075 0 0 0
7846 1 98.889988749999 299.252189089511 1.04689075 0 0 0
7847 1 97.18498864999901 302.20533578951097 1.04689075 0 0 0
7848 1 95.4800056 305.158512020978 1.04689075 0 0 0
7849 1 93.774988449999 308.11162918951095 1.04689075 0 0 0
7850 2 85.25000500000002 297.28344431048896 1.04689075 0 0 0
7851 2 88.6600052 297.28344431048896 1.04689075 0 0 0
7852 2 86.95502215000101 300.236561479022 1.04689075 0 0 0
7853 2 85.25000500000002 303.189708179022 1.04689075 0 0 0
7854 2 92.07000540000001 297.28344431048896 1.04689075 0 0 0
7855 2 90.365022350001 300.236561479022 1.04689075 0 0 0
7856 2 88.6600052 303.189708179022 1.04689075 0 0 0
7857 2 100.5950059 312.049148279022 1.04689075 0 0 0
7858 2 90.365022350001 323.86173507902197 1.04689075 0 0 0
7859 2 95.480022650001 297.28344431048896 1.04689075 0 0 0
7860 2 93.7750055 300.236561479022 1.04689075 0 0 0
7861 2 92.07000540000001 303.189708179022 1.04689075 0 0 0
7862 2 90.365022350001 306.142884410489 1.04689075 0 0 0
7863 2 92.07000540000001 320.908617910489 1.04689075 0 0 0
7864 2 98.890022850001 297.28344431048896 1.04689075 0 0 0
7865 2 97.18502275000101 300.236561479022 1.04689075 0 0 0
7866 2 95.480022650001 303.189708179022 1.04689075 0 0 0
7867 2 93.7750055 306.142884410489 1.04689075 0 0 0
7868 2 92.07000540000001 309.09600157902196 1.04689075 0 0 0
7869 2 93.7750055 317.95547121048895 1.04689075 0 0 0
7870 2 95.480022650001 315.00232451048896 1.04689075 0 0 0
7871 2 97.18502275000101 312.049148279022 1.04689075 0 0 0
7872 1 85.25000500000002 316.971069289511 1.04689075 0 0 0
7873 1 92.07000540000001 311.06480542097796 1.04689075 0 0 0
7874 1 90.36498824999902 314.017922589511 1.04689075 0 0 0
7875 1 88.65998814999901 316.971069289511 1.04689075 0 0 0
7876 1 86.95500510000001 319.92421598951097 1.04689075 0 0 0
7877 1 85.25000500000002 322.877392220978 1.04689075 0 0 0
7878 2 86.95502215000101 323.86173507902197 1.04689075 0 0 0
7879 2 88.6600052 320.908617910489 1.04689075 0 0 0
7880 2 90.365022350001 312.049148279022 1.04689075 0 0 0
7881 2 88.6600052 315.00232451048896 1.04689075 0 0 0
7882 2 86.95502215000101 317.95547121048895 1.04689075 0 0 0
7883 2 85.25000500000002 320.908617910489 1.04689075 0 0 0
7884 1 100.594988849999 302.20533578951097 1.04689075 0 0 0
7885 1 98.889988749999 305.158512020978 1.04689075 0 0 0
7886 1 97.18498864999901 308.11162918951095 1.04689075 0 0 0
7887 1 100.594988849999 308.11162918951095 1.04689075 0 0 0
7888 2 100.5950059 300.236561479022 1.04689075 0 0 0
7889 2 98.890022850001 303.189708179022 1.04689075 0 0 0
7890 2 97.18502275000101 306.142884410489 1.04689075 0 0 0
7891 2 95.480022650001 309.09600157902196 1.04689075 0 0 0
7892 2 100.5950059 306.142884410489 1.04689075 0 0 0
7893 2 98.890022850001 309.09600157902196 1.04689075 0 0 0
7894 1 95.4800056 311.06480542097796 1.04689075 0 0 0
7895 1 93.774988449999 314.017922589511 1.04689075 0 0 0
7896 1 92.07000540000001 316.971069289511 1.04689075 0 0 0
7897 1 90.36498824999902 319.92421598951097 1.04689075 0 0 0
7898 1 88.65998814999901 322.877392220978 1.04689075 0 0 0
7899 1 98.889988749999 311.06480542097796 1.04689075 0 0 0
7900 1 97.18498864999901 314.017922589511 1.04689075 0 0 0
7901 1 95.4800056 316.971069289511 1.04689075 0 0 0
7902 1 93.774988449999 319.92421598951097 1.04689075 0 0 0
7903 1 92.07000540000001 322.877392220978 1.04689075 0 0 0
7904 1 100.594988849999 314.017922589511 1.04689075 0 0 0
7905 1 98.889988749999 316.971069289511 1.04689075 0 0 0
7906 1 97.18498864999901 319.92421598951097 1.04689075 0 0 0
7907 1 95.4800056 322.877392220978 1.04689075 0 0 0
7908 1 100.594988849999 319.92421598951097 1.04689075 0 0 0
7909 1 98.889988749999 322.877392220978 1.04689075 0 0 0
7910 2 93.7750055 312.049148279022 1.04689075 0 0 0
7911 2 92.07000540000001 315.00232451048896 1.04689075 0 0 0
7912 2 90.365022350001 317.95547121048895 1.04689075 0 0 0
553 1 104.00500610000002 0.984401920978 1.04689075 0 0 0
554 1 102.30000600000001 3.937519089511 1.04689075 0 0 0
555 1 107.41498924999901 0.984401920978 1.04689075 0 0 0
556 1 105.709989149999 3.937519089511 1.04689075 0 0 0
557 1 104.00500610000002 6.890665789511 1.04689075 0 0 0
558 1 102.30000600000001 9.843842020978 1.04689075 0 0 0
559 1 110.82498944999901 0.984401920978 1.04689075 0 0 0
560 1 109.12000640000001 3.937519089511 1.04689075 0 0 0
561 1 107.41498924999901 6.890665789511 1.04689075 0 0 0
562 1 105.709989149999 9.843842020978 1.04689075 0 0 0
563 1 104.00500610000002 12.796959189511 1.04689075 0 0 0
564 1 114.23498964999901 0.984401920978 1.04689075 0 0 0
565 1 112.53000660000001 3.937519089511 1.04689075 0 0 0
566 1 110.82498944999901 6.890665789511 1.04689075 0 0 0
567 1 109.12000640000001 9.843842020978 1.04689075 0 0 0
568 1 107.41498924999901 12.796959189511 1.04689075 0 0 0
569 1 117.644989849999 0.984401920978 1.04689075 0 0 0
570 1 115.93998974999901 3.937519089511 1.04689075 0 0 0
571 1 114.23498964999901 6.890665789511 1.04689075 0 0 0
572 1 112.53000660000001 9.843842020978 1.04689075 0 0 0
573 1 110.82498944999901 12.796959189511 1.04689075 0 0 0
574 2 102.30000600000001 1.968774310489 1.04689075 0 0 0
575 2 105.71000620000001 1.968774310489 1.04689075 0 0 0
576 2 104.00502315000101 4.921891479022 1.04689075 0 0 0
577 2 102.30000600000001 7.875038179022 1.04689075 0 0 0
578 2 109.12000640000001 1.968774310489 1.04689075 0 0 0
579 2 107.41502335000101 4.921891479022 1.04689075 0 0 0
580 2 105.71000620000001 7.875038179022 1.04689075 0 0 0
581 2 104.00502315000101 10.828214410489 1.04689075 0 0 0
582 2 102.30000600000001 13.781331579022 1.04689075 0 0 0
583 2 112.53002365000101 1.968774310489 1.04689075 0 0 0
584 2 110.82500650000001 4.921891479022 1.04689075 0 0 0
585 2 109.12000640000001 7.875038179022 1.04689075 0 0 0
586 2 107.41502335000101 10.828214410489 1.04689075 0 0 0
587 2 105.71000620000001 13.781331579022 1.04689075 0 0 0
588 2 115.94002385000101 1.968774310489 1.04689075 0 0 0
589 2 114.235023750001 4.921891479022 1.04689075 0 0 0
590 2 112.53002365000101 7.875038179022 1.04689075 0 0 0
591 2 110.82500650000001 10.828214410489 1.04689075 0 0 0
592 2 109.12000640000001 13.781331579022 1.04689075 0 0 0
593 1 102.30000600000001 15.750135420978 1.04689075 0 0 0
594 1 105.709989149999 15.750135420978 1.04689075 0 0 0
595 1 104.00500610000002 18.703252589511 1.04689075 0 0 0
596 1 102.30000600000001 21.656399289511 1.04689075 0 0 0
597 1 109.12000640000001 15.750135420978 1.04689075 0 0 0
598 1 107.41498924999901 18.703252589511 1.04689075 0 0 0
599 1 105.709989149999 21.656399289511 1.04689075 0 0 0
600 1 104.00500610000002 24.609545989511 1.04689075 0 0 0
601 1 102.30000600000001 27.562722220978 1.04689075 0 0 0
602 2 104.00502315000101 16.734478279022 1.04689075 0 0 0
603 2 102.30000600000001 19.687654510489 1.04689075 0 0 0
604 2 107.41502335000101 16.734478279022 1.04689075 0 0 0
605 2 105.71000620000001 19.687654510489 1.04689075 0 0 0
606 2 104.00502315000101 22.640801210489 1.04689075 0 0 0
607 2 102.30000600000001 25.593947910489 1.04689075 0 0 0
608 1 117.644989849999 6.890665789511 1.04689075 0 0 0
609 1 115.93998974999901 9.843842020978 1.04689075 0 0 0
610 1 114.23498964999901 12.796959189511 1.04689075 0 0 0
611 2 134.6950079 28.547065079022 1.04689075 0 0 0
612 2 117.64500690000001 4.921891479022 1.04689075 0 0 0
613 2 115.94002385000101 7.875038179022 1.04689075 0 0 0
614 2 114.235023750001 10.828214410489 1.04689075 0 0 0
615 2 112.53002365000101 13.781331579022 1.04689075 0 0 0
616 2 131.285024750001 28.547065079022 1.04689075 0 0 0
617 2 132.99002485000102 25.593947910489 1.04689075 0 0 0
618 1 112.53000660000001 15.750135420978 1.04689075 0 0 0
619 1 110.82498944999901 18.703252589511 1.04689075 0 0 0
620 1 109.12000640000001 21.656399289511 1.04689075 0 0 0
621 1 107.41498924999901 24.609545989511 1.04689075 0 0 0
622 1 105.709989149999 27.562722220978 1.04689075 0 0 0
623 2 134.6950079 22.640801210489 1.04689075 0 0 0
624 1 114.23498964999901 18.703252589511 1.04689075 0 0 0
625 1 112.53000660000001 21.656399289511 1.04689075 0 0 0
626 1 110.82498944999901 24.609545989511 1.04689075 0 0 0
627 1 109.12000640000001 27.562722220978 1.04689075 0 0 0
628 2 127.87500750000001 28.547065079022 1.04689075 0 0 0
629 1 115.93998974999901 21.656399289511 1.04689075 0 0 0
630 1 114.23498964999901 24.609545989511 1.04689075 0 0 0
631 1 112.53000660000001 27.562722220978 1.04689075 0 0 0
632 1 117.644989849999 24.609545989511 1.04689075 0 0 0
633 1 115.93998974999901 27.562722220978 1.04689075 0 0 0
634 2 110.82500650000001 16.734478279022 1.04689075 0 0 0
635 2 109.12000640000001 19.687654510489 1.04689075 0 0 0
636 2 107.41502335000101 22.640801210489 1.04689075 0 0 0
637 2 105.71000620000001 25.593947910489 1.04689075 0 0 0
638 2 104.00502315000101 28.547065079022 1.04689075 0 0 0
639 2 114.235023750001 16.734478279022 1.04689075 0 0 0
640 2 112.53002365000101 19.687654510489 1.04689075 0 0 0
641 2 110.82500650000001 22.640801210489 1.04689075 0 0 0
642 2 109.12000640000001 25.593947910489 1.04689075 0 0 0
643 2 107.41502335000101 28.547065079022 1.04689075 0 0 0
644 2 129.580024650001 25.593947910489 1.04689075 0 0 0
645 2 115.94002385000101 19.687654510489 1.04689075 0 0 0
646 2 114.235023750001 22.640801210489 1.04689075 0 0 0
647 2 112.53002365000101 25.593947910489 1.04689075 0 0 0
648 2 110.82500650000001 28.547065079022 1.04689075 0 0 0
649 2 117.64500690000001 22.640801210489 1.04689075 0 0 0
650 2 115.94002385000101 25.593947910489 1.04689075 0 0 0
651 2 114.235023750001 28.547065079022 1.04689075 0 0 0
652 2 117.64500690000001 28.547065079022 1.04689075 0 0 0
653 1 121.05500710000001 0.984401920978 1.04689075 0 0 0
654 1 119.350007 3.937519089511 1.04689075 0 0 0
655 1 124.464990249999 0.984401920978 1.04689075 0 0 0
656 1 122.75999014999901 3.937519089511 1.04689075 0 0 0
657 1 121.05500710000001 6.890665789511 1.04689075 0 0 0
658 2 131.285024750001 22.640801210489 1.04689075 0 0 0
659 1 127.87499044999902 0.984401920978 1.04689075 0 0 0
660 1 126.1700074 3.937519089511 1.04689075 0 0 0
661 1 124.464990249999 6.890665789511 1.04689075 0 0 0
662 1 122.75999014999901 9.843842020978 1.04689075 0 0 0
663 2 132.99002485000102 19.687654510489 1.04689075 0 0 0
664 1 131.284990649999 0.984401920978 1.04689075 0 0 0
665 1 129.58000760000002 3.937519089511 1.04689075 0 0 0
666 1 127.87499044999902 6.890665789511 1.04689075 0 0 0
667 1 126.1700074 9.843842020978 1.04689075 0 0 0
668 1 124.464990249999 12.796959189511 1.04689075 0 0 0
669 1 134.69499084999902 0.984401920978 1.04689075 0 0 0
670 1 132.989990749999 3.937519089511 1.04689075 0 0 0
671 1 131.284990649999 6.890665789511 1.04689075 0 0 0
672 1 129.58000760000002 9.843842020978 1.04689075 0 0 0
673 1 127.87499044999902 12.796959189511 1.04689075 0 0 0
674 2 119.350007 1.968774310489 1.04689075 0 0 0
675 2 122.76000720000002 1.968774310489 1.04689075 0 0 0
676 2 121.055024150001 4.921891479022 1.04689075 0 0 0
677 2 119.350007 7.875038179022 1.04689075 0 0 0
678 2 126.1700074 1.968774310489 1.04689075 0 0 0
679 2 124.46502435000102 4.921891479022 1.04689075 0 0 0
680 2 122.76000720000002 7.875038179022 1.04689075 0 0 0
681 2 134.6950079 16.734478279022 1.04689075 0 0 0
682 2 124.46502435000102 28.547065079022 1.04689075 0 0 0
683 2 129.580024650001 1.968774310489 1.04689075 0 0 0
684 2 127.87500750000001 4.921891479022 1.04689075 0 0 0
685 2 126.1700074 7.875038179022 1.04689075 0 0 0
686 2 124.46502435000102 10.828214410489 1.04689075 0 0 0
687 2 126.1700074 25.593947910489 1.04689075 0 0 0
688 2 132.99002485000102 1.968774310489 1.04689075 0 0 0
689 2 131.285024750001 4.921891479022 1.04689075 0 0 0
690 2 129.580024650001 7.875038179022 1.04689075 0 0 0
691 2 127.87500750000001 10.828214410489 1.04689075 0 0 0
692 2 126.1700074 13.781331579022 1.04689075 0 0 0
693 2 127.87500750000001 22.640801210489 1.04689075 0 0 0
694 2 129.580024650001 19.687654510489 1.04689075 0 0 0
695 2 131.285024750001 16.734478279022 1.04689075 0 0 0
696 1 119.350007 21.656399289511 1.04689075 0 0 0
697 1 126.1700074 15.750135420978 1.04689075 0 0 0
698 1 124.464990249999 18.703252589511 1.04689075 0 0 0
699 1 122.75999014999901 21.656399289511 1.04689075 0 0 0
700 1 121.05500710000001 24.609545989511 1.04689075 0 0 0
701 1 119.350007 27.562722220978 1.04689075 0 0 0
702 2 121.055024150001 28.547065079022 1.04689075 0 0 0
703 2 122.76000720000002 25.593947910489 1.04689075 0 0 0
704 2 124.46502435000102 16.734478279022 1.04689075 0 0 0
705 2 122.76000720000002 19.687654510489 1.04689075 0 0 0
706 2 121.055024150001 22.640801210489 1.04689075 0 0 0
707 2 119.350007 25.593947910489 1.04689075 0 0 0
708 1 134.69499084999902 6.890665789511 1.04689075 0 0 0
709 1 132.989990749999 9.843842020978 1.04689075 0 0 0
710 1 131.284990649999 12.796959189511 1.04689075 0 0 0
711 1 134.69499084999902 12.796959189511 1.04689075 0 0 0
712 2 134.6950079 4.921891479022 1.04689075 0 0 0
713 2 132.99002485000102 7.875038179022 1.04689075 0 0 0
714 2 131.285024750001 10.828214410489 1.04689075 0 0 0
715 2 129.580024650001 13.781331579022 1.04689075 0 0 0
716 2 134.6950079 10.828214410489 1.04689075 0 0 0
717 2 132.99002485000102 13.781331579022 1.04689075 0 0 0
718 1 129.58000760000002 15.750135420978 1.04689075 0 0 0
719 1 127.87499044999902 18.703252589511 1.04689075 0 0 0
720 1 126.1700074 21.656399289511 1.04689075 0 0 0
721 1 124.464990249999 24.609545989511 1.04689075 0 0 0
722 1 122.75999014999901 27.562722220978 1.04689075 0 0 0
723 1 132.989990749999 15.750135420978 1.04689075 0 0 0
724 1 131.284990649999 18.703252589511 1.04689075 0 0 0
725 1 129.58000760000002 21.656399289511 1.04689075 0 0 0
726 1 127.87499044999902 24.609545989511 1.04689075 0 0 0
727 1 126.1700074 27.562722220978 1.04689075 0 0 0
728 1 134.69499084999902 18.703252589511 1.04689075 0 0 0
729 1 132.989990749999 21.656399289511 1.04689075 0 0 0
730 1 131.284990649999 24.609545989511 1.04689075 0 0 0
731 1 129.58000760000002 27.562722220978 1.04689075 0 0 0
732 1 134.69499084999902 24.609545989511 1.04689075 0 0 0
733 1 132.989990749999 27.562722220978 1.04689075 0 0 0
734 2 127.87500750000001 16.734478279022 1.04689075 0 0 0
735 2 126.1700074 19.687654510489 1.04689075 0 0 0
736 2 124.46502435000102 22.640801210489 1.04689075 0 0 0
1289 1 104.00500610000002 30.515868920978 1.04689075 0 0 0
1290 1 102.30000600000001 33.468986089511 1.04689075 0 0 0
1291 1 107.41498924999901 30.515868920978 1.04689075 0 0 0
1292 1 105.709989149999 33.468986089511 1.04689075 0 0 0
1293 1 104.00500610000002 36.422132789511 1.04689075 0 0 0
1294 1 102.30000600000001 39.375309020978 1.04689075 0 0 0
1295 1 110.82498944999901 30.515868920978 1.04689075 0 0 0
1296 1 109.12000640000001 33.468986089511 1.04689075 0 0 0
1297 1 107.41498924999901 36.422132789511 1.04689075 0 0 0
1298 1 105.709989149999 39.375309020978 1.04689075 0 0 0
1299 1 104.00500610000002 42.328426189511 1.04689075 0 0 0
1300 1 114.23498964999901 30.515868920978 1.04689075 0 0 0
1301 1 112.53000660000001 33.468986089511 1.04689075 0 0 0
1302 1 110.82498944999901 36.422132789511 1.04689075 0 0 0
1303 1 109.12000640000001 39.375309020978 1.04689075 0 0 0
1304 1 107.41498924999901 42.328426189511 1.04689075 0 0 0
1305 1 117.644989849999 30.515868920978 1.04689075 0 0 0
1306 1 115.93998974999901 33.468986089511 1.04689075 0 0 0
1307 1 114.23498964999901 36.422132789511 1.04689075 0 0 0
1308 1 112.53000660000001 39.375309020978 1.04689075 0 0 0
1309 1 110.82498944999901 42.328426189511 1.04689075 0 0 0
1310 2 102.30000600000001 31.500241310489 1.04689075 0 0 0
1311 2 105.71000620000001 31.500241310489 1.04689075 0 0 0
1312 2 104.00502315000101 34.453358479022 1.04689075 0 0 0
1313 2 102.30000600000001 37.406505179022 1.04689075 0 0 0
1314 2 109.12000640000001 31.500241310489 1.04689075 0 0 0
1315 2 107.41502335000101 34.453358479022 1.04689075 0 0 0
1316 2 105.71000620000001 37.406505179022 1.04689075 0 0 0
1317 2 104.00502315000101 40.359681410489 1.04689075 0 0 0
1318 2 102.30000600000001 43.312798579022 1.04689075 0 0 0
1319 2 112.53002365000101 31.500241310489 1.04689075 0 0 0
1320 2 110.82500650000001 34.453358479022 1.04689075 0 0 0
1321 2 109.12000640000001 37.406505179022 1.04689075 0 0 0
1322 2 107.41502335000101 40.359681410489 1.04689075 0 0 0
1323 2 105.71000620000001 43.312798579022 1.04689075 0 0 0
1324 2 115.94002385000101 31.500241310489 1.04689075 0 0 0
1325 2 114.235023750001 34.453358479022 1.04689075 0 0 0
1326 2 112.53002365000101 37.406505179022 1.04689075 0 0 0
1327 2 110.82500650000001 40.359681410489 1.04689075 0 0 0
1328 2 109.12000640000001 43.312798579022 1.04689075 0 0 0
1329 1 102.30000600000001 45.281602420978 1.04689075 0 0 0
1330 1 105.709989149999 45.281602420978 1.04689075 0 0 0
1331 1 104.00500610000002 48.234719589511 1.04689075 0 0 0
1332 1 102.30000600000001 51.187866289511 1.04689075 0 0 0
1333 1 109.12000640000001 45.281602420978 1.04689075 0 0 0
1334 1 107.41498924999901 48.234719589511 1.04689075 0 0 0
1335 1 105.709989149999 51.187866289511 1.04689075 0 0 0
1336 1 104.00500610000002 54.141012989511 1.04689075 0 0 0
1337 1 102.30000600000001 57.094189220977995 1.04689075 0 0 0
1338 2 104.00502315000101 46.265945279022 1.04689075 0 0 0
1339 2 102.30000600000001 49.219121510489 1.04689075 0 0 0
1340 2 107.41502335000101 46.265945279022 1.04689075 0 0 0
1341 2 105.71000620000001 49.219121510489 1.04689075 0 0 0
1342 2 104.00502315000101 52.172268210488994 1.04689075 0 0 0
1343 2 102.30000600000001 55.125414910489 1.04689075 0 0 0
1344 1 117.644989849999 36.422132789511 1.04689075 0 0 0
1345 1 115.93998974999901 39.375309020978 1.04689075 0 0 0
1346 1 114.23498964999901 42.328426189511 1.04689075 0 0 0
1347 2 134.6950079 58.078532079022 1.04689075 0 0 0
1348 2 117.64500690000001 34.453358479022 1.04689075 0 0 0
1349 2 115.94002385000101 37.406505179022 1.04689075 0 0 0
1350 2 114.235023750001 40.359681410489 1.04689075 0 0 0
1351 2 112.53002365000101 43.312798579022 1.04689075 0 0 0
1352 2 131.285024750001 58.078532079022 1.04689075 0 0 0
1353 2 132.99002485000102 55.125414910489 1.04689075 0 0 0
1354 1 112.53000660000001 45.281602420978 1.04689075 0 0 0
1355 1 110.82498944999901 48.234719589511 1.04689075 0 0 0
1356 1 109.12000640000001 51.187866289511 1.04689075 0 0 0
1357 1 107.41498924999901 54.141012989511 1.04689075 0 0 0
1358 1 105.709989149999 57.094189220977995 1.04689075 0 0 0
1359 2 134.6950079 52.172268210488994 1.04689075 0 0 0
1360 1 114.23498964999901 48.234719589511 1.04689075 0 0 0
1361 1 112.53000660000001 51.187866289511 1.04689075 0 0 0
1362 1 110.82498944999901 54.141012989511 1.04689075 0 0 0
1363 1 109.12000640000001 57.094189220977995 1.04689075 0 0 0
1364 2 127.87500750000001 58.078532079022 1.04689075 0 0 0
1365 1 115.93998974999901 51.187866289511 1.04689075 0 0 0
1366 1 114.23498964999901 54.141012989511 1.04689075 0 0 0
1367 1 112.53000660000001 57.094189220977995 1.04689075 0 0 0
1368 1 117.644989849999 54.141012989511 1.04689075 0 0 0
1369 1 115.93998974999901 57.094189220977995 1.04689075 0 0 0
1370 2 110.82500650000001 46.265945279022 1.04689075 0 0 0
1371 2 109.12000640000001 49.219121510489 1.04689075 0 0 0
1372 2 107.41502335000101 52.172268210488994 1.04689075 0 0 0
1373 2 105.71000620000001 55.125414910489 1.04689075 0 0 0
1374 2 104.00502315000101 58.078532079022 1.04689075 0 0 0
1375 2 114.235023750001 46.265945279022 1.04689075 0 0 0
1376 2 112.53002365000101 49.219121510489 1.04689075 0 0 0
1377 2 110.82500650000001 52.172268210488994 1.04689075 0 0 0
1378 2 109.12000640000001 55.125414910489 1.04689075 0 0 0
1379 2 107.41502335000101 58.078532079022 1.04689075 0 0 0
1380 2 129.580024650001 55.125414910489 1.04689075 0 0 0
1381 2 115.94002385000101 49.219121510489 1.04689075 0 0 0
1382 2 114.235023750001 52.172268210488994 1.04689075 0 0 0
1383 2 112.53002365000101 55.125414910489 1.04689075 0 0 0
1384 2 110.82500650000001 58.078532079022 1.04689075 0 0 0
1385 2 117.64500690000001 52.172268210488994 1.04689075 0 0 0
1386 2 115.94002385000101 55.125414910489 1.04689075 0 0 0
1387 2 114.235023750001 58.078532079022 1.04689075 0 0 0
1388 2 117.64500690000001 58.078532079022 1.04689075 0 0 0
1389 1 121.05500710000001 30.515868920978 1.04689075 0 0 0
1390 1 119.350007 33.468986089511 1.04689075 0 0 0
1391 1 124.464990249999 30.515868920978 1.04689075 0 0 0
1392 1 122.75999014999901 33.468986089511 1.04689075 0 0 0
1393 1 121.05500710000001 36.422132789511 1.04689075 0 0 0
1394 2 131.285024750001 52.172268210488994 1.04689075 0 0 0
1395 1 127.87499044999902 30.515868920978 1.04689075 0 0 0
1396 1 126.1700074 33.468986089511 1.04689075 0 0 0
1397 1 124.464990249999 36.422132789511 1.04689075 0 0 0
1398 1 122.75999014999901 39.375309020978 1.04689075 0 0 0
1399 2 132.99002485000102 49.219121510489 1.04689075 0 0 0
1400 1 131.284990649999 30.515868920978 1.04689075 0 0 0
1401 1 129.58000760000002 33.468986089511 1.04689075 0 0 0
1402 1 127.87499044999902 36.422132789511 1.04689075 0 0 0
1403 1 126.1700074 39.375309020978 1.04689075 0 0 0
1404 1 124.464990249999 42.328426189511 1.04689075 0 0 0
1405 1 134.69499084999902 30.515868920978 1.04689075 0 0 0
1406 1 132.989990749999 33.468986089511 1.04689075 0 0 0
1407 1 131.284990649999 36.422132789511 1.04689075 0 0 0
1408 1 129.58000760000002 39.375309020978 1.04689075 0 0 0
1409 1 127.87499044999902 42.328426189511 1.04689075 0 0 0
1410 2 119.350007 31.500241310489 1.04689075 0 0 0
1411 2 122.76000720000002 31.500241310489 1.04689075 0 0 0
1412 2 121.055024150001 34.453358479022 1.04689075 0 0 0
1413 2 119.350007 37.406505179022 1.04689075 0 0 0
1414 2 126.1700074 31.500241310489 1.04689075 0 0 0
1415 2 124.46502435000102 34.453358479022 1.04689075 0 0 0
1416 2 122.76000720000002 37.406505179022 1.04689075 0 0 0
1417 2 134.6950079 46.265945279022 1.04689075 0 0 0
1418 2 124.46502435000102 58.078532079022 1.04689075 0 0 0
1419 2 129.580024650001 31.500241310489 1.04689075 0 0 0
1420 2 127.87500750000001 34.453358479022 1.04689075 0 0 0
1421 2 126.1700074 37.406505179022 1.04689075 0 0 0
1422 2 124.46502435000102 40.359681410489 1.04689075 0 0 0
1423 2 126.1700074 55.125414910489 1.04689075 0 0 0
1424 2 132.99002485000102 31.500241310489 1.04689075 0 0 0
1425 2 131.285024750001 34.453358479022 1.04689075 0 0 0
1426 2 129.580024650001 37.406505179022 1.04689075 0 0 0
1427 2 127.87500750000001 40.359681410489 1.04689075 0 0 0
1428 2 126.1700074 43.312798579022 1.04689075 0 0 0
1429 2 127.87500750000001 52.172268210488994 1.04689075 0 0 0
1430 2 129.580024650001 49.219121510489 1.04689075 0 0 0
1431 2 131.285024750001 46.265945279022 1.04689075 0 0 0
1432 1 119.350007 51.187866289511 1.04689075 0 0 0
1433 1 126.1700074 45.281602420978 1.04689075 0 0 0
1434 1 124.464990249999 48.234719589511 1.04689075 0 0 0
1435 1 122.75999014999901 51.187866289511 1.04689075 0 0 0
1436 1 121.05500710000001 54.141012989511 1.04689075 0 0 0
1437 1 119.350007 57.094189220977995 1.04689075 0 0 0
1438 2 121.055024150001 58.078532079022 1.04689075 0 0 0
1439 2 122.76000720000002 55.125414910489 1.04689075 0 0 0
1440 2 124.46502435000102 46.265945279022 1.04689075 0 0 0
1441 2 122.76000720000002 49.219121510489 1.04689075 0 0 0
1442 2 121.055024150001 52.172268210488994 1.04689075 0 0 0
1443 2 119.350007 55.125414910489 1.04689075 0 0 0
1444 1 134.69499084999902 36.422132789511 1.04689075 0 0 0
1445 1 132.989990749999 39.375309020978 1.04689075 0 0 0
1446 1 131.284990649999 42.328426189511 1.04689075 0 0 0
1447 1 134.69499084999902 42.328426189511 1.04689075 0 0 0
1448 2 134.6950079 34.453358479022 1.04689075 0 0 0
1449 2 132.99002485000102 37.406505179022 1.04689075 0 0 0
1450 2 131.285024750001 40.359681410489 1.04689075 0 0 0
1451 2 129.580024650001 43.312798579022 1.04689075 0 0 0
1452 2 134.6950079 40.359681410489 1.04689075 0 0 0
1453 2 132.99002485000102 43.312798579022 1.04689075 0 0 0
1454 1 129.58000760000002 45.281602420978 1.04689075 0 0 0
1455 1 127.87499044999902 48.234719589511 1.04689075 0 0 0
1456 1 126.1700074 51.187866289511 1.04689075 0 0 0
1457 1 124.464990249999 54.141012989511 1.04689075 0 0 0
1458 1 122.75999014999901 57.094189220977995 1.04689075 0 0 0
1459 1 132.989990749999 45.281602420978 1.04689075 0 0 0
1460 1 131.284990649999 48.234719589511 1.04689075 0 0 0
1461 1 129.58000760000002 51.187866289511 1.04689075 0 0 0
1462 1 127.87499044999902 54.141012989511 1.04689075 0 0 0
1463 1 126.1700074 57.094189220977995 1.04689075 0 0 0
1464 1 134.69499084999902 48.234719589511 1.04689075 0 0 0
1465 1 132.989990749999 51.187866289511 1.04689075 0 0 0
1466 1 131.284990649999 54.141012989511 1.04689075 0 0 0
1467 1 129.58000760000002 57.094189220977995 1.04689075 0 0 0
1468 1 134.69499084999902 54.141012989511 1.04689075 0 0 0
1469 1 132.989990749999 57.094189220977995 1.04689075 0 0 0
1470 2 127.87500750000001 46.265945279022 1.04689075 0 0 0
1471 2 126.1700074 49.219121510489 1.04689075 0 0 0
1472 2 124.46502435000102 52.172268210488994 1.04689075 0 0 0
2025 1 104.00500610000002 60.047335920978 1.04689075 0 0 0
2026 1 102.30000600000001 63.000453089511 1.04689075 0 0 0
2027 1 107.41498924999901 60.047335920978 1.04689075 0 0 0
2028 1 105.709989149999 63.000453089511 1.04689075 0 0 0
2029 1 104.00500610000002 65.953599789511 1.04689075 0 0 0
2030 1 102.30000600000001 68.906776020978 1.04689075 0 0 0
2031 1 110.82498944999901 60.047335920978 1.04689075 0 0 0
2032 1 109.12000640000001 63.000453089511 1.04689075 0 0 0
2033 1 107.41498924999901 65.953599789511 1.04689075 0 0 0
2034 1 105.709989149999 68.906776020978 1.04689075 0 0 0
2035 1 104.00500610000002 71.859893189511 1.04689075 0 0 0
2036 1 114.23498964999901 60.047335920978 1.04689075 0 0 0
2037 1 112.53000660000001 63.000453089511 1.04689075 0 0 0
2038 1 110.82498944999901 65.953599789511 1.04689075 0 0 0
2039 1 109.12000640000001 68.906776020978 1.04689075 0 0 0
2040 1 107.41498924999901 71.859893189511 1.04689075 0 0 0
2041 1 117.644989849999 60.047335920978 1.04689075 0 0 0
2042 1 115.93998974999901 63.000453089511 1.04689075 0 0 0
2043 1 114.23498964999901 65.953599789511 1.04689075 0 0 0
2044 1 112.53000660000001 68.906776020978 1.04689075 0 0 0
2045 1 110.82498944999901 71.859893189511 1.04689075 0 0 0
2046 2 102.30000600000001 61.031708310489 1.04689075 0 0 0
2047 2 105.71000620000001 61.031708310489 1.04689075 0 0 0
2048 2 104.00502315000101 63.984825479022 1.04689075 0 0 0
2049 2 102.30000600000001 66.937972179022 1.04689075 0 0 0
2050 2 109.12000640000001 61.031708310489 1.04689075 0 0 0
2051 2 107.41502335000101 63.984825479022 1.04689075 0 0 0
2052 2 105.71000620000001 66.937972179022 1.04689075 0 0 0
2053 2 104.00502315000101 69.891148410489 1.04689075 0 0 0
2054 2 102.30000600000001 72.844265579022 1.04689075 0 0 0
2055 2 112.53002365000101 61.031708310489 1.04689075 0 0 0
2056 2 110.82500650000001 63.984825479022 1.04689075 0 0 0
2057 2 109.12000640000001 66.937972179022 1.04689075 0 0 0
2058 2 107.41502335000101 69.891148410489 1.04689075 0 0 0
2059 2 105.71000620000001 72.844265579022 1.04689075 0 0 0
2060 2 115.94002385000101 61.031708310489 1.04689075 0 0 0
2061 2 114.235023750001 63.984825479022 1.04689075 0 0 0
2062 2 112.53002365000101 66.937972179022 1.04689075 0 0 0
2063 2 110.82500650000001 69.891148410489 1.04689075 0 0 0
2064 2 109.12000640000001 72.844265579022 1.04689075 0 0 0
2065 1 102.30000600000001 74.813069420978 1.04689075 0 0 0
2066 1 105.709989149999 74.813069420978 1.04689075 0 0 0
2067 1 104.00500610000002 77.766186589511 1.04689075 0 0 0
2068 1 102.30000600000001 80.719333289511 1.04689075 0 0 0
2069 1 109.12000640000001 74.813069420978 1.04689075 0 0 0
2070 1 107.41498924999901 77.766186589511 1.04689075 0 0 0
2071 1 105.709989149999 80.719333289511 1.04689075 0 0 0
2072 1 104.00500610000002 83.672479989511 1.04689075 0 0 0
2073 1 102.30000600000001 86.625656220978 1.04689075 0 0 0
2074 2 104.00502315000101 75.797412279022 1.04689075 0 0 0
2075 2 102.30000600000001 78.750588510489 1.04689075 0 0 0
2076 2 107.41502335000101 75.797412279022 1.04689075 0 0 0
2077 2 105.71000620000001 78.750588510489 1.04689075 0 0 0
2078 2 104.00502315000101 81.703735210489 1.04689075 0 0 0
2079 2 102.30000600000001 84.656881910489 1.04689075 0 0 0
2080 1 117.644989849999 65.953599789511 1.04689075 0 0 0
2081 1 115.93998974999901 68.906776020978 1.04689075 0 0 0
2082 1 114.23498964999901 71.859893189511 1.04689075 0 0 0
2083 2 134.6950079 87.609999079022 1.04689075 0 0 0
2084 2 117.64500690000001 63.984825479022 1.04689075 0 0 0
2085 2 115.94002385000101 66.937972179022 1.04689075 0 0 0
2086 2 114.235023750001 69.891148410489 1.04689075 0 0 0
2087 2 112.53002365000101 72.844265579022 1.04689075 0 0 0
2088 2 131.285024750001 87.609999079022 1.04689075 0 0 0
2089 2 132.99002485000102 84.656881910489 1.04689075 0 0 0
2090 1 112.53000660000001 74.813069420978 1.04689075 0 0 0
2091 1 110.82498944999901 77.766186589511 1.04689075 0 0 0
2092 1 109.12000640000001 80.719333289511 1.04689075 0 0 0
2093 1 107.41498924999901 83.672479989511 1.04689075 0 0 0
2094 1 105.709989149999 86.625656220978 1.04689075 0 0 0
2095 2 134.6950079 81.703735210489 1.04689075 0 0 0
2096 1 114.23498964999901 77.766186589511 1.04689075 0 0 0
2097 1 112.53000660000001 80.719333289511 1.04689075 0 0 0
2098 1 110.82498944999901 83.672479989511 1.04689075 0 0 0
2099 1 109.12000640000001 86.625656220978 1.04689075 0 0 0
2100 2 127.87500750000001 87.609999079022 1.04689075 0 0 0
2101 1 115.93998974999901 80.719333289511 1.04689075 0 0 0
2102 1 114.23498964999901 83.672479989511 1.04689075 0 0 0
2103 1 112.53000660000001 86.625656220978 1.04689075 0 0 0
2104 1 117.644989849999 83.672479989511 1.04689075 0 0 0
2105 1 115.93998974999901 86.625656220978 1.04689075 0 0 0
2106 2 110.82500650000001 75.797412279022 1.04689075 0 0 0
2107 2 109.12000640000001 78.750588510489 1.04689075 0 0 0
2108 2 107.41502335000101 81.703735210489 1.04689075 0 0 0
2109 2 105.71000620000001 84.656881910489 1.04689075 0 0 0
2110 2 104.00502315000101 87.609999079022 1.04689075 0 0 0
2111 2 114.235023750001 75.797412279022 1.04689075 0 0 0
2112 2 112.53002365000101 78.750588510489 1.04689075 0 0 0
2113 2 110.82500650000001 81.703735210489 1.04689075 0 0 0
2114 2 109.12000640000001 84.656881910489 1.04689075 0 0 0
2115 2 107.41502335000101 87.609999079022 1.04689075 0 0 0
2116 2 129.580024650001 84.656881910489 1.04689075 0 0 0
2117 2 115.94002385000101 78.750588510489 1.04689075 0 0 0
2118 2 114.235023750001 81.703735210489 1.04689075 0 0 0
2119 2 112.53002365000101 84.656881910489 1.04689075 0 0 0
2120 2 110.82500650000001 87.609999079022 1.04689075 0 0 0
2121 2 117.64500690000001 81.703735210489 1.04689075 0 0 0
2122 2 115.94002385000101 84.656881910489 1.04689075 0 0 0
2123 2 114.235023750001 87.609999079022 1.04689075 0 0 0
2124 2 117.64500690000001 87.609999079022 1.04689075 0 0 0
2125 1 121.05500710000001 60.047335920978 1.04689075 0 0 0
2126 1 119.350007 63.000453089511 1.04689075 0 0 0
2127 1 124.464990249999 60.047335920978 1.04689075 0 0 0
2128 1 122.75999014999901 63.000453089511 1.04689075 0 0 0
2129 1 121.05500710000001 65.953599789511 1.04689075 0 0 0
2130 2 131.285024750001 81.703735210489 1.04689075 0 0 0
2131 1 127.87499044999902 60.047335920978 1.04689075 0 0 0
2132 1 126.1700074 63.000453089511 1.04689075 0 0 0
2133 1 124.464990249999 65.953599789511 1.04689075 0 0 0
2134 1 122.75999014999901 68.906776020978 1.04689075 0 0 0
2135 2 132.99002485000102 78.750588510489 1.04689075 0 0 0
2136 1 131.284990649999 60.047335920978 1.04689075 0 0 0
2137 1 129.58000760000002 63.000453089511 1.04689075 0 0 0
2138 1 127.87499044999902 65.953599789511 1.04689075 0 0 0
2139 1 126.1700074 68.906776020978 1.04689075 0 0 0
2140 1 124.464990249999 71.859893189511 1.04689075 0 0 0
2141 1 134.69499084999902 60.047335920978 1.04689075 0 0 0
2142 1 132.989990749999 63.000453089511 1.04689075 0 0 0
2143 1 131.284990649999 65.953599789511 1.04689075 0 0 0
2144 1 129.58000760000002 68.906776020978 1.04689075 0 0 0
2145 1 127.87499044999902 71.859893189511 1.04689075 0 0 0
2146 2 119.350007 61.031708310489 1.04689075 0 0 0
2147 2 122.76000720000002 61.031708310489 1.04689075 0 0 0
2148 2 121.055024150001 63.984825479022 1.04689075 0 0 0
2149 2 119.350007 66.937972179022 1.04689075 0 0 0
2150 2 126.1700074 61.031708310489 1.04689075 0 0 0
2151 2 124.46502435000102 63.984825479022 1.04689075 0 0 0
2152 2 122.76000720000002 66.937972179022 1.04689075 0 0 0
2153 2 134.6950079 75.797412279022 1.04689075 0 0 0
2154 2 124.46502435000102 87.609999079022 1.04689075 0 0 0
2155 2 129.580024650001 61.031708310489 1.04689075 0 0 0
2156 2 127.87500750000001 63.984825479022 1.04689075 0 0 0
2157 2 126.1700074 66.937972179022 1.04689075 0 0 0
2158 2 124.46502435000102 69.891148410489 1.04689075 0 0 0
2159 2 126.1700074 84.656881910489 1.04689075 0 0 0
2160 2 132.99002485000102 61.031708310489 1.04689075 0 0 0
2161 2 131.285024750001 63.984825479022 1.04689075 0 0 0
2162 2 129.580024650001 66.937972179022 1.04689075 0 0 0
2163 2 127.87500750000001 69.891148410489 1.04689075 0 0 0
2164 2 126.1700074 72.844265579022 1.04689075 0 0 0
2165 2 127.87500750000001 81.703735210489 1.04689075 0 0 0
2166 2 129.580024650001 78.750588510489 1.04689075 0 0 0
2167 2 131.285024750001 75.797412279022 1.04689075 0 0 0
2168 1 119.350007 80.719333289511 1.04689075 0 0 0
2169 1 126.1700074 74.813069420978 1.04689075 0 0 0
2170 1 124.464990249999 77.766186589511 1.04689075 0 0 0
2171 1 122.75999014999901 80.719333289511 1.04689075 0 0 0
2172 1 121.05500710000001 83.672479989511 1.04689075 0 0 0
2173 1 119.350007 86.625656220978 1.04689075 0 0 0
2174 2 121.055024150001 87.609999079022 1.04689075 0 0 0
2175 2 122.76000720000002 84.656881910489 1.04689075 0 0 0
2176 2 124.46502435000102 75.797412279022 1.04689075 0 0 0
2177 2 122.76000720000002 78.750588510489 1.04689075 0 0 0
2178 2 121.055024150001 81.703735210489 1.04689075 0 0 0
2179 2 119.350007 84.656881910489 1.04689075 0 0 0
2180 1 134.69499084999902 65.953599789511 1.04689075 0 0 0
2181 1 132.989990749999 68.906776020978 1.04689075 0 0 0
2182 1 131.284990649999 71.859893189511 1.04689075 0 0 0
2183 1 134.69499084999902 71.859893189511 1.04689075 0 0 0
2184 2 134.6950079 63.984825479022 1.04689075 0 0 0
2185 2 132.99002485000102 66.937972179022 1.04689075 0 0 0
2186 2 131.285024750001 69.891148410489 1.04689075 0 0 0
2187 2 129.580024650001 72.844265579022 1.04689075 0 0 0
2188 2 134.6950079 69.891148410489 1.04689075 0 0 0
2189 2 132.99002485000102 72.844265579022 1.04689075 0 0 0
2190 1 129.58000760000002 74.813069420978 1.04689075 0 0 0
2191 1 127.87499044999902 77.766186589511 1.04689075 0 0 0
2192 1 126.1700074 80.719333289511 1.04689075 0 0 0
2193 1 124.464990249999 83.672479989511 1.04689075 0 0 0
2194 1 122.75999014999901 86.625656220978 1.04689075 0 0 0
2195 1 132.989990749999 74.813069420978 1.04689075 0 0 0
2196 1 131.284990649999 77.766186589511 1.04689075 0 0 0
2197 1 129.58000760000002 80.719333289511 1.04689075 0 0 0
2198 1 127.87499044999902 83.672479989511 1.04689075 0 0 0
2199 1 126.1700074 86.625656220978 1.04689075 0 0 0
2200 1 134.69499084999902 77.766186589511 1.04689075 0 0 0
2201 1 132.989990749999 80.719333289511 1.04689075 0 0 0
2202 1 131.284990649999 83.672479989511 1.04689075 0 0 0
2203 1 129.58000760000002 86.625656220978 1.04689075 0 0 0
2204 1 134.69499084999902 83.672479989511 1.04689075 0 0 0
2205 1 132.989990749999 86.625656220978 1.04689075 0 0 0
2206 2 127.87500750000001 75.797412279022 1.04689075 0 0 0
2207 2 126.1700074 78.750588510489 1.04689075 0 0 0
2208 2 124.46502435000102 81.703735210489 1.04689075 0 0 0
2761 1 104.00500610000002 89.578802920978 1.04689075 0 0 0
2762 1 102.30000600000001 92.531920089511 1.04689075 0 0 0
2763 1 107.41498924999901 89.578802920978 1.04689075 0 0 0
2764 1 105.709989149999 92.531920089511 1.04689075 0 0 0
2765 1 104.00500610000002 95.48506678951101 1.04689075 0 0 0
2766 1 102.30000600000001 98.438243020978 1.04689075 0 0 0
2767 1 110.82498944999901 89.578802920978 1.04689075 0 0 0
2768 1 109.12000640000001 92.531920089511 1.04689075 0 0 0
2769 1 107.41498924999901 95.48506678951101 1.04689075 0 0 0
2770 1 105.709989149999 98.438243020978 1.04689075 0 0 0
2771 1 104.00500610000002 101.391360189511 1.04689075 0 0 0
2772 1 114.23498964999901 89.578802920978 1.04689075 0 0 0
2773 1 112.53000660000001 92.531920089511 1.04689075 0 0 0
2774 1 110.82498944999901 95.48506678951101 1.04689075 0 0 0
2775 1 109.12000640000001 98.438243020978 1.04689075 0 0 0
2776 1 107.41498924999901 101.391360189511 1.04689075 0 0 0
2777 1 117.644989849999 89.578802920978 1.04689075 0 0 0
2778 1 115.93998974999901 92.531920089511 1.04689075 0 0 0
2779 1 114.23498964999901 95.48506678951101 1.04689075 0 0 0
2780 1 112.53000660000001 98.438243020978 1.04689075 0 0 0
2781 1 110.82498944999901 101.391360189511 1.04689075 0 0 0
2782 2 102.30000600000001 90.563175310489 1.04689075 0 0 0
2783 2 105.71000620000001 90.563175310489 1.04689075 0 0 0
2784 2 104.00502315000101 93.516292479022 1.04689075 0 0 0
2785 2 102.30000600000001 96.469439179022 1.04689075 0 0 0
2786 2 109.12000640000001 90.563175310489 1.04689075 0 0 0
2787 2 107.41502335000101 93.516292479022 1.04689075 0 0 0
2788 2 105.71000620000001 96.469439179022 1.04689075 0 0 0
2789 2 104.00502315000101 99.422615410489 1.04689075 0 0 0
2790 2 102.30000600000001 102.375732579022 1.04689075 0 0 0
2791 2 112.53002365000101 90.563175310489 1.04689075 0 0 0
2792 2 110.82500650000001 93.516292479022 1.04689075 0 0 0
2793 2 109.12000640000001 96.469439179022 1.04689075 0 0 0
2794 2 107.41502335000101 99.422615410489 1.04689075 0 0 0
2795 2 105.71000620000001 102.375732579022 1.04689075 0 0 0
2796 2 115.94002385000101 90.563175310489 1.04689075 0 0 0
2797 2 114.235023750001 93.516292479022 1.04689075 0 0 0
2798 2 112.53002365000101 96.469439179022 1.04689075 0 0 0
2799 2 110.82500650000001 99.422615410489 1.04689075 0 0 0
2800 2 109.12000640000001 102.375732579022 1.04689075 0 0 0
2801 1 102.30000600000001 104.344536420978 1.04689075 0 0 0
2802 1 105.709989149999 104.344536420978 1.04689075 0 0 0
2803 1 104.00500610000002 107.297653589511 1.04689075 0 0 0
2804 1 102.30000600000001 110.250800289511 1.04689075 0 0 0
2805 1 109.12000640000001 104.344536420978 1.04689075 0 0 0
2806 1 107.41498924999901 107.297653589511 1.04689075 0 0 0
2807 1 105.709989149999 110.250800289511 1.04689075 0 0 0
2808 1 104.00500610000002 113.203946989511 1.04689075 0 0 0
2809 1 102.30000600000001 116.15712322097801 1.04689075 0 0 0
2810 2 104.00502315000101 105.328879279022 1.04689075 0 0 0
2811 2 102.30000600000001 108.282055510489 1.04689075 0 0 0
2812 2 107.41502335000101 105.328879279022 1.04689075 0 0 0
2813 2 105.71000620000001 108.282055510489 1.04689075 0 0 0
2814 2 104.00502315000101 111.235202210489 1.04689075 0 0 0
2815 2 102.30000600000001 114.188348910489 1.04689075 0 0 0
2816 1 117.644989849999 95.48506678951101 1.04689075 0 0 0
2817 1 115.93998974999901 98.438243020978 1.04689075 0 0 0
2818 1 114.23498964999901 101.391360189511 1.04689075 0 0 0
2819 2 134.6950079 117.14146607902201 1.04689075 0 0 0
2820 2 117.64500690000001 93.516292479022 1.04689075 0 0 0
2821 2 115.94002385000101 96.469439179022 1.04689075 0 0 0
2822 2 114.235023750001 99.422615410489 1.04689075 0 0 0
2823 2 112.53002365000101 102.375732579022 1.04689075 0 0 0
2824 2 131.285024750001 117.14146607902201 1.04689075 0 0 0
2825 2 132.99002485000102 114.188348910489 1.04689075 0 0 0
2826 1 112.53000660000001 104.344536420978 1.04689075 0 0 0
2827 1 110.82498944999901 107.297653589511 1.04689075 0 0 0
2828 1 109.12000640000001 110.250800289511 1.04689075 0 0 0
2829 1 107.41498924999901 113.203946989511 1.04689075 0 0 0
2830 1 105.709989149999 116.15712322097801 1.04689075 0 0 0
2831 2 134.6950079 111.235202210489 1.04689075 0 0 0
2832 1 114.23498964999901 107.297653589511 1.04689075 0 0 0
2833 1 112.53000660000001 110.250800289511 1.04689075 0 0 0
2834 1 110.82498944999901 113.203946989511 1.04689075 0 0 0
2835 1 109.12000640000001 116.15712322097801 1.04689075 0 0 0
2836 2 127.87500750000001 117.14146607902201 1.04689075 0 0 0
2837 1 115.93998974999901 110.250800289511 1.04689075 0 0 0
2838 1 114.23498964999901 113.203946989511 1.04689075 0 0 0
2839 1 112.53000660000001 116.15712322097801 1.04689075 0 0 0
2840 1 117.644989849999 113.203946989511 1.04689075 0 0 0
2841 1 115.93998974999901 116.15712322097801 1.04689075 0 0 0
2842 2 110.82500650000001 105.328879279022 1.04689075 0 0 0
2843 2 109.12000640000001 108.282055510489 1.04689075 0 0 0
2844 2 107.41502335000101 111.235202210489 1.04689075 0 0 0
2845 2 105.71000620000001 114.188348910489 1.04689075 0 0 0
2846 2 104.00502315000101 117.14146607902201 1.04689075 0 0 0
2847 2 114.235023750001 105.328879279022 1.04689075 0 0 0
2848 2 112.53002365000101 108.282055510489 1.04689075 0 0 0
2849 2 110.82500650000001 111.235202210489 1.04689075 0 0 0
2850 2 109.12000640000001 114.188348910489 1.04689075 0 0 0
2851 2 107.41502335000101 117.14146607902201 1.04689075 0 0 0
2852 2 129.580024650001 114.188348910489 1.04689075 0 0 0
2853 2 115.94002385000101 108.282055510489 1.04689075 0 0 0
2854 2 114.235023750001 111.235202210489 1.04689075 0 0 0
2855 2 112.53002365000101 114.188348910489 1.04689075 0 0 0
2856 2 110.82500650000001 117.14146607902201 1.04689075 0 0 0
2857 2 117.64500690000001 111.235202210489 1.04689075 0 0 0
2858 2 115.94002385000101 114.188348910489 1.04689075 0 0 0
2859 2 114.235023750001 117.14146607902201 1.04689075 0 0 0
2860 2 117.64500690000001 117.14146607902201 1.04689075 0 0 0
2861 1 121.05500710000001 89.578802920978 1.04689075 0 0 0
2862 1 119.350007 92.531920089511 1.04689075 0 0 0
2863 1 124.464990249999 89.578802920978 1.04689075 0 0 0
2864 1 122.75999014999901 92.531920089511 1.04689075 0 0 0
2865 1 121.05500710000001 95.48506678951101 1.04689075 0 0 0
2866 2 131.285024750001 111.235202210489 1.04689075 0 0 0
2867 1 127.87499044999902 89.578802920978 1.04689075 0 0 0
2868 1 126.1700074 92.531920089511 1.04689075 0 0 0
2869 1 124.464990249999 95.48506678951101 1.04689075 0 0 0
2870 1 122.75999014999901 98.438243020978 1.04689075 0 0 0
2871 2 132.99002485000102 108.282055510489 1.04689075 0 0 0
2872 1 131.284990649999 89.578802920978 1.04689075 0 0 0
2873 1 129.58000760000002 92.531920089511 1.04689075 0 0 0
2874 1 127.87499044999902 95.48506678951101 1.04689075 0 0 0
2875 1 126.1700074 98.438243020978 1.04689075 0 0 0
2876 1 124.464990249999 101.391360189511 1.04689075 0 0 0
2877 1 134.69499084999902 89.578802920978 1.04689075 0 0 0
2878 1 132.989990749999 92.531920089511 1.04689075 0 0 0
2879 1 131.284990649999 95.48506678951101 1.04689075 0 0 0
2880 1 129.58000760000002 98.438243020978 1.04689075 0 0 0
2881 1 127.87499044999902 101.391360189511 1.04689075 0 0 0
2882 2 119.350007 90.563175310489 1.04689075 0 0 0
2883 2 122.76000720000002 90.563175310489 1.04689075 0 0 0
2884 2 121.055024150001 93.516292479022 1.04689075 0 0 0
2885 2 119.350007 96.469439179022 1.04689075 0 0 0
2886 2 126.1700074 90.563175310489 1.04689075 0 0 0
2887 2 124.46502435000102 93.516292479022 1.04689075 0 0 0
2888 2 122.76000720000002 96.469439179022 1.04689075 0 0 0
2889 2 134.6950079 105.328879279022 1.04689075 0 0 0
2890 2 124.46502435000102 117.14146607902201 1.04689075 0 0 0
2891 2 129.580024650001 90.563175310489 1.04689075 0 0 0
2892 2 127.87500750000001 93.516292479022 1.04689075 0 0 0
2893 2 126.1700074 96.469439179022 1.04689075 0 0 0
2894 2 124.46502435000102 99.422615410489 1.04689075 0 0 0
2895 2 126.1700074 114.188348910489 1.04689075 0 0 0
2896 2 132.99002485000102 90.563175310489 1.04689075 0 0 0
2897 2 131.285024750001 93.516292479022 1.04689075 0 0 0
2898 2 129.580024650001 96.469439179022 1.04689075 0 0 0
2899 2 127.87500750000001 99.422615410489 1.04689075 0 0 0
2900 2 126.1700074 102.375732579022 1.04689075 0 0 0
2901 2 127.87500750000001 111.235202210489 1.04689075 0 0 0
2902 2 129.580024650001 108.282055510489 1.04689075 0 0 0
2903 2 131.285024750001 105.328879279022 1.04689075 0 0 0
2904 1 119.350007 110.250800289511 1.04689075 0 0 0
2905 1 126.1700074 104.344536420978 1.04689075 0 0 0
2906 1 124.464990249999 107.297653589511 1.04689075 0 0 0
2907 1 122.75999014999901 110.250800289511 1.04689075 0 0 0
2908 1 121.05500710000001 113.203946989511 1.04689075 0 0 0
2909 1 119.350007 116.15712322097801 1.04689075 0 0 0
2910 2 121.055024150001 117.14146607902201 1.04689075 0 0 0
2911 2 122.76000720000002 114.188348910489 1.04689075 0 0 0
2912 2 124.46502435000102 105.328879279022 1.04689075 0 0 0
2913 2 122.76000720000002 108.282055510489 1.04689075 0 0 0
2914 2 121.055024150001 111.235202210489 1.04689075 0 0 0
2915 2 119.350007 114.188348910489 1.04689075 0 0 0
2916 1 134.69499084999902 95.48506678951101 1.04689075 0 0 0
2917 1 132.989990749999 98.438243020978 1.04689075 0 0 0
2918 1 131.284990649999 101.391360189511 1.04689075 0 0 0
2919 1 134.69499084999902 101.391360189511 1.04689075 0 0 0
2920 2 134.6950079 93.516292479022 1.04689075 0 0 0
2921 2 132.99002485000102 96.469439179022 1.04689075 0 0 0
2922 2 131.285024750001 99.422615410489 1.04689075 0 0 0
2923 2 129.580024650001 102.375732579022 1.04689075 0 0 0
2924 2 134.6950079 99.422615410489 1.04689075 0 0 0
2925 2 132.99002485000102 102.375732579022 1.04689075 0 0 0
2926 1 129.58000760000002 104.344536420978 1.04689075 0 0 0
2927 1 127.87499044999902 107.297653589511 1.04689075 0 0 0
2928 1 126.1700074 110.250800289511 1.04689075 0 0 0
2929 1 124.464990249999 113.203946989511 1.04689075 0 0 0
2930 1 122.75999014999901 116.15712322097801 1.04689075 0 0 0
2931 1 132.989990749999 104.344536420978 1.04689075 0 0 0
2932 1 131.284990649999 107.297653589511 1.04689075 0 0 0
2933 1 129.58000760000002 110.250800289511 1.04689075 0 0 0
2934 1 127.87499044999902 113.203946989511 1.04689075 0 0 0
2935 1 126.1700074 116.15712322097801 1.04689075 0 0 0
2936 1 134.69499084999902 107.297653589511 1.04689075 0 0 0
2937 1 132.989990749999 110.250800289511 1.04689075 0 0 0
2938 1 131.284990649999 113.203946989511 1.04689075 0 0 0
2939 1 129.58000760000002 116.15712322097801 1.04689075 0 0 0
2940 1 134.69499084999902 113.203946989511 1.04689075 0 0 0
2941 1 132.989990749999 116.15712322097801 1.04689075 0 0 0
2942 2 127.87500750000001 105.328879279022 1.04689075 0 0 0
2943 2 126.1700074 108.282055510489 1.04689075 0 0 0
2944 2 124.46502435000102 111.235202210489 1.04689075 0 0 0
3497 1 104.00500610000002 119.110269920978 1.04689075 0 0 0
3498 1 102.30000600000001 122.063387089511 1.04689075 0 0 0
3499 1 107.41498924999901 119.110269920978 1.04689075 0 0 0
3500 1 105.709989149999 122.063387089511 1.04689075 0 0 0
3501 1 104.00500610000002 125.016533789511 1.04689075 0 0 0
3502 1 102.30000600000001 127.969710020978 1.04689075 0 0 0
3503 1 110.82498944999901 119.110269920978 1.04689075 0 0 0
3504 1 109.12000640000001 122.063387089511 1.04689075 0 0 0
3505 1 107.41498924999901 125.016533789511 1.04689075 0 0 0
3506 1 105.709989149999 127.969710020978 1.04689075 0 0 0
3507 1 104.00500610000002 130.922827189511 1.04689075 0 0 0
3508 1 114.23498964999901 119.110269920978 1.04689075 0 0 0
3509 1 112.53000660000001 122.063387089511 1.04689075 0 0 0
3510 1 110.82498944999901 125.016533789511 1.04689075 0 0 0
3511 1 109.12000640000001 127.969710020978 1.04689075 0 0 0
3512 1 107.41498924999901 130.922827189511 1.04689075 0 0 0
3513 1 117.644989849999 119.110269920978 1.04689075 0 0 0
3514 1 115.93998974999901 122.063387089511 1.04689075 0 0 0
3515 1 114.23498964999901 125.016533789511 1.04689075 0 0 0
3516 1 112.53000660000001 127.969710020978 1.04689075 0 0 0
3517 1 110.82498944999901 130.922827189511 1.04689075 0 0 0
3518 2 102.30000600000001 120.094642310489 1.04689075 0 0 0
3519 2 105.71000620000001 120.094642310489 1.04689075 0 0 0
3520 2 104.00502315000101 123.04775947902199 1.04689075 0 0 0
3521 2 102.30000600000001 126.000906179022 1.04689075 0 0 0
3522 2 109.12000640000001 120.094642310489 1.04689075 0 0 0
3523 2 107.41502335000101 123.04775947902199 1.04689075 0 0 0
3524 2 105.71000620000001 126.000906179022 1.04689075 0 0 0
3525 2 104.00502315000101 128.954082410489 1.04689075 0 0 0
3526 2 102.30000600000001 131.907199579022 1.04689075 0 0 0
3527 2 112.53002365000101 120.094642310489 1.04689075 0 0 0
3528 2 110.82500650000001 123.04775947902199 1.04689075 0 0 0
3529 2 109.12000640000001 126.000906179022 1.04689075 0 0 0
3530 2 107.41502335000101 128.954082410489 1.04689075 0 0 0
3531 2 105.71000620000001 131.907199579022 1.04689075 0 0 0
3532 2 115.94002385000101 120.094642310489 1.04689075 0 0 0
3533 2 114.235023750001 123.04775947902199 1.04689075 0 0 0
3534 2 112.53002365000101 126.000906179022 1.04689075 0 0 0
3535 2 110.82500650000001 128.954082410489 1.04689075 0 0 0
3536 2 109.12000640000001 131.907199579022 1.04689075 0 0 0
3537 1 102.30000600000001 133.876003420978 1.04689075 0 0 0
3538 1 105.709989149999 133.876003420978 1.04689075 0 0 0
3539 1 104.00500610000002 136.829120589511 1.04689075 0 0 0
3540 1 102.30000600000001 139.782267289511 1.04689075 0 0 0
3541 1 109.12000640000001 133.876003420978 1.04689075 0 0 0
3542 1 107.41498924999901 136.829120589511 1.04689075 0 0 0
3543 1 105.709989149999 139.782267289511 1.04689075 0 0 0
3544 1 104.00500610000002 142.735413989511 1.04689075 0 0 0
3545 1 102.30000600000001 145.688590220978 1.04689075 0 0 0
3546 2 104.00502315000101 134.860346279022 1.04689075 0 0 0
3547 2 102.30000600000001 137.813522510489 1.04689075 0 0 0
3548 2 107.41502335000101 134.860346279022 1.04689075 0 0 0
3549 2 105.71000620000001 137.813522510489 1.04689075 0 0 0
3550 2 104.00502315000101 140.766669210489 1.04689075 0 0 0
3551 2 102.30000600000001 143.719815910489 1.04689075 0 0 0
3552 1 117.644989849999 125.016533789511 1.04689075 0 0 0
3553 1 115.93998974999901 127.969710020978 1.04689075 0 0 0
3554 1 114.23498964999901 130.922827189511 1.04689075 0 0 0
3555 2 134.6950079 146.672933079022 1.04689075 0 0 0
3556 2 117.64500690000001 123.04775947902199 1.04689075 0 0 0
3557 2 115.94002385000101 126.000906179022 1.04689075 0 0 0
3558 2 114.235023750001 128.954082410489 1.04689075 0 0 0
3559 2 112.53002365000101 131.907199579022 1.04689075 0 0 0
3560 2 131.285024750001 146.672933079022 1.04689075 0 0 0
3561 2 132.99002485000102 143.719815910489 1.04689075 0 0 0
3562 1 112.53000660000001 133.876003420978 1.04689075 0 0 0
3563 1 110.82498944999901 136.829120589511 1.04689075 0 0 0
3564 1 109.12000640000001 139.782267289511 1.04689075 0 0 0
3565 1 107.41498924999901 142.735413989511 1.04689075 0 0 0
3566 1 105.709989149999 145.688590220978 1.04689075 0 0 0
3567 2 134.6950079 140.766669210489 1.04689075 0 0 0
3568 1 114.23498964999901 136.829120589511 1.04689075 0 0 0
3569 1 112.53000660000001 139.782267289511 1.04689075 0 0 0
3570 1 110.82498944999901 142.735413989511 1.04689075 0 0 0
3571 1 109.12000640000001 145.688590220978 1.04689075 0 0 0
3572 2 127.87500750000001 146.672933079022 1.04689075 0 0 0
3573 1 115.93998974999901 139.782267289511 1.04689075 0 0 0
3574 1 114.23498964999901 142.735413989511 1.04689075 0 0 0
3575 1 112.53000660000001 145.688590220978 1.04689075 0 0 0
3576 1 117.644989849999 142.735413989511 1.04689075 0 0 0
3577 1 115.93998974999901 145.688590220978 1.04689075 0 0 0
3578 2 110.82500650000001 134.860346279022 1.04689075 0 0 0
3579 2 109.12000640000001 137.813522510489 1.04689075 0 0 0
3580 2 107.41502335000101 140.766669210489 1.04689075 0 0 0
3581 2 105.71000620000001 143.719815910489 1.04689075 0 0 0
3582 2 104.00502315000101 146.672933079022 1.04689075 0 0 0
3583 2 114.235023750001 134.860346279022 1.04689075 0 0 0
3584 2 112.53002365000101 137.813522510489 1.04689075 0 0 0
3585 2 110.82500650000001 140.766669210489 1.04689075 0 0 0
3586 2 109.12000640000001 143.719815910489 1.04689075 0 0 0
3587 2 107.41502335000101 146.672933079022 1.04689075 0 0 0
3588 2 129.580024650001 143.719815910489 1.04689075 0 0 0
3589 2 115.94002385000101 137.813522510489 1.04689075 0 0 0
3590 2 114.235023750001 140.766669210489 1.04689075 0 0 0
3591 2 112.53002365000101 143.719815910489 1.04689075 0 0 0
3592 2 110.82500650000001 146.672933079022 1.04689075 0 0 0
3593 2 117.64500690000001 140.766669210489 1.04689075 0 0 0
3594 2 115.94002385000101 143.719815910489 1.04689075 0 0 0
3595 2 114.235023750001 146.672933079022 1.04689075 0 0 0
3596 2 117.64500690000001 146.672933079022 1.04689075 0 0 0
3597 1 121.05500710000001 119.110269920978 1.04689075 0 0 0
3598 1 119.350007 122.063387089511 1.04689075 0 0 0
3599 1 124.464990249999 119.110269920978 1.04689075 0 0 0
3600 1 122.75999014999901 122.063387089511 1.04689075 0 0 0
3601 1 121.05500710000001 125.016533789511 1.04689075 0 0 0
3602 2 131.285024750001 140.766669210489 1.04689075 0 0 0
3603 1 127.87499044999902 119.110269920978 1.04689075 0 0 0
3604 1 126.1700074 122.063387089511 1.04689075 0 0 0
3605 1 124.464990249999 125.016533789511 1.04689075 0 0 0
3606 1 122.75999014999901 127.969710020978 1.04689075 0 0 0
3607 2 132.99002485000102 137.813522510489 1.04689075 0 0 0
3608 1 131.284990649999 119.110269920978 1.04689075 0 0 0
3609 1 129.58000760000002 122.063387089511 1.04689075 0 0 0
3610 1 127.87499044999902 125.016533789511 1.04689075 0 0 0
3611 1 126.1700074 127.969710020978 1.04689075 0 0 0
3612 1 124.464990249999 130.922827189511 1.04689075 0 0 0
3613 1 134.69499084999902 119.110269920978 1.04689075 0 0 0
3614 1 132.989990749999 122.063387089511 1.04689075 0 0 0
3615 1 131.284990649999 125.016533789511 1.04689075 0 0 0
3616 1 129.58000760000002 127.969710020978 1.04689075 0 0 0
3617 1 127.87499044999902 130.922827189511 1.04689075 0 0 0
3618 2 119.350007 120.094642310489 1.04689075 0 0 0
3619 2 122.76000720000002 120.094642310489 1.04689075 0 0 0
3620 2 121.055024150001 123.04775947902199 1.04689075 0 0 0
3621 2 119.350007 126.000906179022 1.04689075 0 0 0
3622 2 126.1700074 120.094642310489 1.04689075 0 0 0
3623 2 124.46502435000102 123.04775947902199 1.04689075 0 0 0
3624 2 122.76000720000002 126.000906179022 1.04689075 0 0 0
3625 2 134.6950079 134.860346279022 1.04689075 0 0 0
3626 2 124.46502435000102 146.672933079022 1.04689075 0 0 0
3627 2 129.580024650001 120.094642310489 1.04689075 0 0 0
3628 2 127.87500750000001 123.04775947902199 1.04689075 0 0 0
3629 2 126.1700074 126.000906179022 1.04689075 0 0 0
3630 2 124.46502435000102 128.954082410489 1.04689075 0 0 0
3631 2 126.1700074 143.719815910489 1.04689075 0 0 0
3632 2 132.99002485000102 120.094642310489 1.04689075 0 0 0
3633 2 131.285024750001 123.04775947902199 1.04689075 0 0 0
3634 2 129.580024650001 126.000906179022 1.04689075 0 0 0
3635 2 127.87500750000001 128.954082410489 1.04689075 0 0 0
3636 2 126.1700074 131.907199579022 1.04689075 0 0 0
3637 2 127.87500750000001 140.766669210489 1.04689075 0 0 0
3638 2 129.580024650001 137.813522510489 1.04689075 0 0 0
3639 2 131.285024750001 134.860346279022 1.04689075 0 0 0
3640 1 119.350007 139.782267289511 1.04689075 0 0 0
3641 1 126.1700074 133.876003420978 1.04689075 0 0 0
3642 1 124.464990249999 136.829120589511 1.04689075 0 0 0
3643 1 122.75999014999901 139.782267289511 1.04689075 0 0 0
3644 1 121.05500710000001 142.735413989511 1.04689075 0 0 0
3645 1 119.350007 145.688590220978 1.04689075 0 0 0
3646 2 121.055024150001 146.672933079022 1.04689075 0 0 0
3647 2 122.76000720000002 143.719815910489 1.04689075 0 0 0
3648 2 124.46502435000102 134.860346279022 1.04689075 0 0 0
3649 2 122.76000720000002 137.813522510489 1.04689075 0 0 0
3650 2 121.055024150001 140.766669210489 1.04689075 0 0 0
3651 2 119.350007 143.719815910489 1.04689075 0 0 0
3652 1 134.69499084999902 125.016533789511 1.04689075 0 0 0
3653 1 132.989990749999 127.969710020978 1.04689075 0 0 0
3654 1 131.284990649999 130.922827189511 1.04689075 0 0 0
3655 1 134.69499084999902 130.922827189511 1.04689075 0 0 0
3656 2 134.6950079 123.04775947902199 1.04689075 0 0 0
3657 2 132.99002485000102 126.000906179022 1.04689075 0 0 0
3658 2 131.285024750001 128.954082410489 1.04689075 0 0 0
3659 2 129.580024650001 131.907199579022 1.04689075 0 0 0
3660 2 134.6950079 128.954082410489 1.04689075 0 0 0
3661 2 132.99002485000102 131.907199579022 1.04689075 0 0 0
3662 1 129.58000760000002 133.876003420978 1.04689075 0 0 0
3663 1 127.87499044999902 136.829120589511 1.04689075 0 0 0
3664 1 126.1700074 139.782267289511 1.04689075 0 0 0
3665 1 124.464990249999 142.735413989511 1.04689075 0 0 0
3666 1 122.75999014999901 145.688590220978 1.04689075 0 0 0
3667 1 132.989990749999 133.876003420978 1.04689075 0 0 0
3668 1 131.284990649999 136.829120589511 1.04689075 0 0 0
3669 1 129.58000760000002 139.782267289511 1.04689075 0 0 0
3670 1 127.87499044999902 142.735413989511 1.04689075 0 0 0
3671 1 126.1700074 145.688590220978 1.04689075 0 0 0
3672 1 134.69499084999902 136.829120589511 1.04689075 0 0 0
3673 1 132.989990749999 139.782267289511 1.04689075 0 0 0
3674 1 131.284990649999 142.735413989511 1.04689075 0 0 0
3675 1 129.58000760000002 145.688590220978 1.04689075 0 0 0
3676 1 134.69499084999902 142.735413989511 1.04689075 0 0 0
3677 1 132.989990749999 145.688590220978 1.04689075 0 0 0
3678 2 127.87500750000001 134.860346279022 1.04689075 0 0 0
3679 2 126.1700074 137.813522510489 1.04689075 0 0 0
3680 2 124.46502435000102 140.766669210489 1.04689075 0 0 0
4233 1 104.00500610000002 148.641736920978 1.04689075 0 0 0
4234 1 102.30000600000001 151.594854089511 1.04689075 0 0 0
4235 1 107.41498924999901 148.641736920978 1.04689075 0 0 0
4236 1 105.709989149999 151.594854089511 1.04689075 0 0 0
4237 1 104.00500610000002 154.54800078951098 1.04689075 0 0 0
4238 1 102.30000600000001 157.501177020978 1.04689075 0 0 0
4239 1 110.82498944999901 148.641736920978 1.04689075 0 0 0
4240 1 109.12000640000001 151.594854089511 1.04689075 0 0 0
4241 1 107.41498924999901 154.54800078951098 1.04689075 0 0 0
4242 1 105.709989149999 157.501177020978 1.04689075 0 0 0
4243 1 104.00500610000002 160.454294189511 1.04689075 0 0 0
4244 1 114.23498964999901 148.641736920978 1.04689075 0 0 0
4245 1 112.53000660000001 151.594854089511 1.04689075 0 0 0
4246 1 110.82498944999901 154.54800078951098 1.04689075 0 0 0
4247 1 109.12000640000001 157.501177020978 1.04689075 0 0 0
4248 1 107.41498924999901 160.454294189511 1.04689075 0 0 0
4249 1 117.644989849999 148.641736920978 1.04689075 0 0 0
4250 1 115.93998974999901 151.594854089511 1.04689075 0 0 0
4251 1 114.23498964999901 154.54800078951098 1.04689075 0 0 0
4252 1 112.53000660000001 157.501177020978 1.04689075 0 0 0
4253 1 110.82498944999901 160.454294189511 1.04689075 0 0 0
4254 2 102.30000600000001 149.626109310489 1.04689075 0 0 0
4255 2 105.71000620000001 149.626109310489 1.04689075 0 0 0
4256 2 104.00502315000101 152.579226479022 1.04689075 0 0 0
4257 2 102.30000600000001 155.532373179022 1.04689075 0 0 0
4258 2 109.12000640000001 149.626109310489 1.04689075 0 0 0
4259 2 107.41502335000101 152.579226479022 1.04689075 0 0 0
4260 2 105.71000620000001 155.532373179022 1.04689075 0 0 0
4261 2 104.00502315000101 158.485549410489 1.04689075 0 0 0
4262 2 102.30000600000001 161.438666579022 1.04689075 0 0 0
4263 2 112.53002365000101 149.626109310489 1.04689075 0 0 0
4264 2 110.82500650000001 152.579226479022 1.04689075 0 0 0
4265 2 109.12000640000001 155.532373179022 1.04689075 0 0 0
4266 2 107.41502335000101 158.485549410489 1.04689075 0 0 0
4267 2 105.71000620000001 161.438666579022 1.04689075 0 0 0
4268 2 115.94002385000101 149.626109310489 1.04689075 0 0 0
4269 2 114.235023750001 152.579226479022 1.04689075 0 0 0
4270 2 112.53002365000101 155.532373179022 1.04689075 0 0 0
4271 2 110.82500650000001 158.485549410489 1.04689075 0 0 0
4272 2 109.12000640000001 161.438666579022 1.04689075 0 0 0
4273 1 102.30000600000001 163.407470420978 1.04689075 0 0 0
4274 1 105.709989149999 163.407470420978 1.04689075 0 0 0
4275 1 104.00500610000002 166.360587589511 1.04689075 0 0 0
4276 1 102.30000600000001 169.313734289511 1.04689075 0 0 0
4277 1 109.12000640000001 163.407470420978 1.04689075 0 0 0
4278 1 107.41498924999901 166.360587589511 1.04689075 0 0 0
4279 1 105.709989149999 169.313734289511 1.04689075 0 0 0
4280 1 104.00500610000002 172.26688098951098 1.04689075 0 0 0
4281 1 102.30000600000001 175.220057220978 1.04689075 0 0 0
4282 2 104.00502315000101 164.391813279022 1.04689075 0 0 0
4283 2 102.30000600000001 167.344989510489 1.04689075 0 0 0
4284 2 107.41502335000101 164.391813279022 1.04689075 0 0 0
4285 2 105.71000620000001 167.344989510489 1.04689075 0 0 0
4286 2 104.00502315000101 170.298136210489 1.04689075 0 0 0
4287 2 102.30000600000001 173.25128291048898 1.04689075 0 0 0
4288 1 117.644989849999 154.54800078951098 1.04689075 0 0 0
4289 1 115.93998974999901 157.501177020978 1.04689075 0 0 0
4290 1 114.23498964999901 160.454294189511 1.04689075 0 0 0
4291 2 134.6950079 176.20440007902198 1.04689075 0 0 0
4292 2 117.64500690000001 152.579226479022 1.04689075 0 0 0
4293 2 115.94002385000101 155.532373179022 1.04689075 0 0 0
4294 2 114.235023750001 158.485549410489 1.04689075 0 0 0
4295 2 112.53002365000101 161.438666579022 1.04689075 0 0 0
4296 2 131.285024750001 176.20440007902198 1.04689075 0 0 0
4297 2 132.99002485000102 173.25128291048898 1.04689075 0 0 0
4298 1 112.53000660000001 163.407470420978 1.04689075 0 0 0
4299 1 110.82498944999901 166.360587589511 1.04689075 0 0 0
4300 1 109.12000640000001 169.313734289511 1.04689075 0 0 0
4301 1 107.41498924999901 172.26688098951098 1.04689075 0 0 0
4302 1 105.709989149999 175.220057220978 1.04689075 0 0 0
4303 2 134.6950079 170.298136210489 1.04689075 0 0 0
4304 1 114.23498964999901 166.360587589511 1.04689075 0 0 0
4305 1 112.53000660000001 169.313734289511 1.04689075 0 0 0
4306 1 110.82498944999901 172.26688098951098 1.04689075 0 0 0
4307 1 109.12000640000001 175.220057220978 1.04689075 0 0 0
4308 2 127.87500750000001 176.20440007902198 1.04689075 0 0 0
4309 1 115.93998974999901 169.313734289511 1.04689075 0 0 0
4310 1 114.23498964999901 172.26688098951098 1.04689075 0 0 0
4311 1 112.53000660000001 175.220057220978 1.04689075 0 0 0
4312 1 117.644989849999 172.26688098951098 1.04689075 0 0 0
4313 1 115.93998974999901 175.220057220978 1.04689075 0 0 0
4314 2 110.82500650000001 164.391813279022 1.04689075 0 0 0
4315 2 109.12000640000001 167.344989510489 1.04689075 0 0 0
4316 2 107.41502335000101 170.298136210489 1.04689075 0 0 0
4317 2 105.71000620000001 173.25128291048898 1.04689075 0 0 0
4318 2 104.00502315000101 176.20440007902198 1.04689075 0 0 0
4319 2 114.235023750001 164.391813279022 1.04689075 0 0 0
4320 2 112.53002365000101 167.344989510489 1.04689075 0 0 0
4321 2 110.82500650000001 170.298136210489 1.04689075 0 0 0
4322 2 109.12000640000001 173.25128291048898 1.04689075 0 0 0
4323 2 107.41502335000101 176.20440007902198 1.04689075 0 0 0
4324 2 129.580024650001 173.25128291048898 1.04689075 0 0 0
4325 2 115.94002385000101 167.344989510489 1.04689075 0 0 0
4326 2 114.235023750001 170.298136210489 1.04689075 0 0 0
4327 2 112.53002365000101 173.25128291048898 1.04689075 0 0 0
4328 2 110.82500650000001 176.20440007902198 1.04689075 0 0 0
4329 2 117.64500690000001 170.298136210489 1.04689075 0 0 0
4330 2 115.94002385000101 173.25128291048898 1.04689075 0 0 0
4331 2 114.235023750001 176.20440007902198 1.04689075 0 0 0
4332 2 117.64500690000001 176.20440007902198 1.04689075 0 0 0
4333 1 121.05500710000001 148.641736920978 1.04689075 0 0 0
4334 1 119.350007 151.594854089511 1.04689075 0 0 0
4335 1 124.464990249999 148.641736920978 1.04689075 0 0 0
4336 1 122.75999014999901 151.594854089511 1.04689075 0 0 0
4337 1 121.05500710000001 154.54800078951098 1.04689075 0 0 0
4338 2 131.285024750001 170.298136210489 1.04689075 0 0 0
4339 1 127.87499044999902 148.641736920978 1.04689075 0 0 0
4340 1 126.1700074 151.594854089511 1.04689075 0 0 0
4341 1 124.464990249999 154.54800078951098 1.04689075 0 0 0
4342 1 122.75999014999901 157.501177020978 1.04689075 0 0 0
4343 2 132.99002485000102 167.344989510489 1.04689075 0 0 0
4344 1 131.284990649999 148.641736920978 1.04689075 0 0 0
4345 1 129.58000760000002 151.594854089511 1.04689075 0 0 0
4346 1 127.87499044999902 154.54800078951098 1.04689075 0 0 0
4347 1 126.1700074 157.501177020978 1.04689075 0 0 0
4348 1 124.464990249999 160.454294189511 1.04689075 0 0 0
4349 1 134.69499084999902 148.641736920978 1.04689075 0 0 0
4350 1 132.989990749999 151.594854089511 1.04689075 0 0 0
4351 1 131.284990649999 154.54800078951098 1.04689075 0 0 0
4352 1 129.58000760000002 157.501177020978 1.04689075 0 0 0
4353 1 127.87499044999902 160.454294189511 1.04689075 0 0 0
4354 2 119.350007 149.626109310489 1.04689075 0 0 0
4355 2 122.76000720000002 149.626109310489 1.04689075 0 0 0
4356 2 121.055024150001 152.579226479022 1.04689075 0 0 0
4357 2 119.350007 155.532373179022 1.04689075 0 0 0
4358 2 126.1700074 149.626109310489 1.04689075 0 0 0
4359 2 124.46502435000102 152.579226479022 1.04689075 0 0 0
4360 2 122.76000720000002 155.532373179022 1.04689075 0 0 0
4361 2 134.6950079 164.391813279022 1.04689075 0 0 0
4362 2 124.46502435000102 176.20440007902198 1.04689075 0 0 0
4363 2 129.580024650001 149.626109310489 1.04689075 0 0 0
4364 2 127.87500750000001 152.579226479022 1.04689075 0 0 0
4365 2 126.1700074 155.532373179022 1.04689075 0 0 0
4366 2 124.46502435000102 158.485549410489 1.04689075 0 0 0
4367 2 126.1700074 173.25128291048898 1.04689075 0 0 0
4368 2 132.99002485000102 149.626109310489 1.04689075 0 0 0
4369 2 131.285024750001 152.579226479022 1.04689075 0 0 0
4370 2 129.580024650001 155.532373179022 1.04689075 0 0 0
4371 2 127.87500750000001 158.485549410489 1.04689075 0 0 0
4372 2 126.1700074 161.438666579022 1.04689075 0 0 0
4373 2 127.87500750000001 170.298136210489 1.04689075 0 0 0
4374 2 129.580024650001 167.344989510489 1.04689075 0 0 0
4375 2 131.285024750001 164.391813279022 1.04689075 0 0 0
4376 1 119.350007 169.313734289511 1.04689075 0 0 0
4377 1 126.1700074 163.407470420978 1.04689075 0 0 0
4378 1 124.464990249999 166.360587589511 1.04689075 0 0 0
4379 1 122.75999014999901 169.313734289511 1.04689075 0 0 0
4380 1 121.05500710000001 172.26688098951098 1.04689075 0 0 0
4381 1 119.350007 175.220057220978 1.04689075 0 0 0
4382 2 121.055024150001 176.20440007902198 1.04689075 0 0 0
4383 2 122.76000720000002 173.25128291048898 1.04689075 0 0 0
4384 2 124.46502435000102 164.391813279022 1.04689075 0 0 0
4385 2 122.76000720000002 167.344989510489 1.04689075 0 0 0
4386 2 121.055024150001 170.298136210489 1.04689075 0 0 0
4387 2 119.350007 173.25128291048898 1.04689075 0 0 0
4388 1 134.69499084999902 154.54800078951098 1.04689075 0 0 0
4389 1 132.989990749999 157.501177020978 1.04689075 0 0 0
4390 1 131.284990649999 160.454294189511 1.04689075 0 0 0
4391 1 134.69499084999902 160.454294189511 1.04689075 0 0 0
4392 2 134.6950079 152.579226479022 1.04689075 0 0 0
4393 2 132.99002485000102 155.532373179022 1.04689075 0 0 0
4394 2 131.285024750001 158.485549410489 1.04689075 0 0 0
4395 2 129.580024650001 161.438666579022 1.04689075 0 0 0
4396 2 134.6950079 158.485549410489 1.04689075 0 0 0
4397 2 132.99002485000102 161.438666579022 1.04689075 0 0 0
4398 1 129.58000760000002 163.407470420978 1.04689075 0 0 0
4399 1 127.87499044999902 166.360587589511 1.04689075 0 0 0
4400 1 126.1700074 169.313734289511 1.04689075 0 0 0
4401 1 124.464990249999 172.26688098951098 1.04689075 0 0 0
4402 1 122.75999014999901 175.220057220978 1.04689075 0 0 0
4403 1 132.989990749999 163.407470420978 1.04689075 0 0 0
4404 1 131.284990649999 166.360587589511 1.04689075 0 0 0
4405 1 129.58000760000002 169.313734289511 1.04689075 0 0 0
4406 1 127.87499044999902 172.26688098951098 1.04689075 0 0 0
4407 1 126.1700074 175.220057220978 1.04689075 0 0 0
4408 1 134.69499084999902 166.360587589511 1.04689075 0 0 0
4409 1 132.989990749999 169.313734289511 1.04689075 0 0 0
4410 1 131.284990649999 172.26688098951098 1.04689075 0 0 0
4411 1 129.58000760000002 175.220057220978 1.04689075 0 0 0
4412 1 134.69499084999902 172.26688098951098 1.04689075 0 0 0
4413 1 132.989990749999 175.220057220978 1.04689075 0 0 0
4414 2 127.87500750000001 164.391813279022 1.04689075 0 0 0
4415 2 126.1700074 167.344989510489 1.04689075 0 0 0
4416 2 124.46502435000102 170.298136210489 1.04689075 0 0 0
4969 1 104.00500610000002 178.173203920978 1.04689075 0 0 0
4970 1 102.30000600000001 181.126321089511 1.04689075 0 0 0
4971 1 107.41498924999901 178.173203920978 1.04689075 0 0 0
4972 1 105.709989149999 181.126321089511 1.04689075 0 0 0
4973 1 104.00500610000002 184.079467789511 1.04689075 0 0 0
4974 1 102.30000600000001 187.032644020978 1.04689075 0 0 0
4975 1 110.82498944999901 178.173203920978 1.04689075 0 0 0
4976 1 109.12000640000001 181.126321089511 1.04689075 0 0 0
4977 1 107.41498924999901 184.079467789511 1.04689075 0 0 0
4978 1 105.709989149999 187.032644020978 1.04689075 0 0 0
4979 1 104.00500610000002 189.985761189511 1.04689075 0 0 0
4980 1 114.23498964999901 178.173203920978 1.04689075 0 0 0
4981 1 112.53000660000001 181.126321089511 1.04689075 0 0 0
4982 1 110.82498944999901 184.079467789511 1.04689075 0 0 0
4983 1 109.12000640000001 187.032644020978 1.04689075 0 0 0
4984 1 107.41498924999901 189.985761189511 1.04689075 0 0 0
4985 1 117.644989849999 178.173203920978 1.04689075 0 0 0
4986 1 115.93998974999901 181.126321089511 1.04689075 0 0 0
4987 1 114.23498964999901 184.079467789511 1.04689075 0 0 0
4988 1 112.53000660000001 187.032644020978 1.04689075 0 0 0
4989 1 110.82498944999901 189.985761189511 1.04689075 0 0 0
4990 2 102.30000600000001 179.15757631048902 1.04689075 0 0 0
4991 2 105.71000620000001 179.15757631048902 1.04689075 0 0 0
4992 2 104.00502315000101 182.11069347902202 1.04689075 0 0 0
4993 2 102.30000600000001 185.063840179022 1.04689075 0 0 0
4994 2 109.12000640000001 179.15757631048902 1.04689075 0 0 0
4995 2 107.41502335000101 182.11069347902202 1.04689075 0 0 0
4996 2 105.71000620000001 185.063840179022 1.04689075 0 0 0
4997 2 104.00502315000101 188.01701641048902 1.04689075 0 0 0
4998 2 102.30000600000001 190.97013357902202 1.04689075 0 0 0
4999 2 112.53002365000101 179.15757631048902 1.04689075 0 0 0
5000 2 110.82500650000001 182.11069347902202 1.04689075 0 0 0
5001 2 109.12000640000001 185.063840179022 1.04689075 0 0 0
5002 2 107.41502335000101 188.01701641048902 1.04689075 0 0 0
5003 2 105.71000620000001 190.97013357902202 1.04689075 0 0 0
5004 2 115.94002385000101 179.15757631048902 1.04689075 0 0 0
5005 2 114.235023750001 182.11069347902202 1.04689075 0 0 0
5006 2 112.53002365000101 185.063840179022 1.04689075 0 0 0
5007 2 110.82500650000001 188.01701641048902 1.04689075 0 0 0
5008 2 109.12000640000001 190.97013357902202 1.04689075 0 0 0
5009 1 102.30000600000001 192.93893742097802 1.04689075 0 0 0
5010 1 105.709989149999 192.93893742097802 1.04689075 0 0 0
5011 1 104.00500610000002 195.89205458951102 1.04689075 0 0 0
5012 1 102.30000600000001 198.845201289511 1.04689075 0 0 0
5013 1 109.12000640000001 192.93893742097802 1.04689075 0 0 0
5014 1 107.41498924999901 195.89205458951102 1.04689075 0 0 0
5015 1 105.709989149999 198.845201289511 1.04689075 0 0 0
5016 1 104.00500610000002 201.798347989511 1.04689075 0 0 0
5017 1 102.30000600000001 204.751524220978 1.04689075 0 0 0
5018 2 104.00502315000101 193.923280279022 1.04689075 0 0 0
5019 2 102.30000600000001 196.87645651048902 1.04689075 0 0 0
5020 2 107.41502335000101 193.923280279022 1.04689075 0 0 0
5021 2 105.71000620000001 196.87645651048902 1.04689075 0 0 0
5022 2 104.00502315000101 199.829603210489 1.04689075 0 0 0
5023 2 102.30000600000001 202.782749910489 1.04689075 0 0 0
5024 1 117.644989849999 184.079467789511 1.04689075 0 0 0
5025 1 115.93998974999901 187.032644020978 1.04689075 0 0 0
5026 1 114.23498964999901 189.985761189511 1.04689075 0 0 0
5027 2 134.6950079 205.735867079022 1.04689075 0 0 0
5028 2 117.64500690000001 182.11069347902202 1.04689075 0 0 0
5029 2 115.94002385000101 185.063840179022 1.04689075 0 0 0
5030 2 114.235023750001 188.01701641048902 1.04689075 0 0 0
5031 2 112.53002365000101 190.97013357902202 1.04689075 0 0 0
5032 2 131.285024750001 205.735867079022 1.04689075 0 0 0
5033 2 132.99002485000102 202.782749910489 1.04689075 0 0 0
5034 1 112.53000660000001 192.93893742097802 1.04689075 0 0 0
5035 1 110.82498944999901 195.89205458951102 1.04689075 0 0 0
5036 1 109.12000640000001 198.845201289511 1.04689075 0 0 0
5037 1 107.41498924999901 201.798347989511 1.04689075 0 0 0
5038 1 105.709989149999 204.751524220978 1.04689075 0 0 0
5039 2 134.6950079 199.829603210489 1.04689075 0 0 0
5040 1 114.23498964999901 195.89205458951102 1.04689075 0 0 0
5041 1 112.53000660000001 198.845201289511 1.04689075 0 0 0
5042 1 110.82498944999901 201.798347989511 1.04689075 0 0 0
5043 1 109.12000640000001 204.751524220978 1.04689075 0 0 0
5044 2 127.87500750000001 205.735867079022 1.04689075 0 0 0
5045 1 115.93998974999901 198.845201289511 1.04689075 0 0 0
5046 1 114.23498964999901 201.798347989511 1.04689075 0 0 0
5047 1 112.53000660000001 204.751524220978 1.04689075 0 0 0
5048 1 117.644989849999 201.798347989511 1.04689075 0 0 0
5049 1 115.93998974999901 204.751524220978 1.04689075 0 0 0
5050 2 110.82500650000001 193.923280279022 1.04689075 0 0 0
5051 2 109.12000640000001 196.87645651048902 1.04689075 0 0 0
5052 2 107.41502335000101 199.829603210489 1.04689075 0 0 0
5053 2 105.71000620000001 202.782749910489 1.04689075 0 0 0
5054 2 104.00502315000101 205.735867079022 1.04689075 0 0 0
5055 2 114.235023750001 193.923280279022 1.04689075 0 0 0
5056 2 112.53002365000101 196.87645651048902 1.04689075 0 0 0
5057 2 110.82500650000001 199.829603210489 1.04689075 0 0 0
5058 2 109.12000640000001 202.782749910489 1.04689075 0 0 0
5059 2 107.41502335000101 205.735867079022 1.04689075 0 0 0
5060 2 129.580024650001 202.782749910489 1.04689075 0 0 0
5061 2 115.94002385000101 196.87645651048902 1.04689075 0 0 0
5062 2 114.235023750001 199.829603210489 1.04689075 0 0 0
5063 2 112.53002365000101 202.782749910489 1.04689075 0 0 0
5064 2 110.82500650000001 205.735867079022 1.04689075 0 0 0
5065 2 117.64500690000001 199.829603210489 1.04689075 0 0 0
5066 2 115.94002385000101 202.782749910489 1.04689075 0 0 0
5067 2 114.235023750001 205.735867079022 1.04689075 0 0 0
5068 2 117.64500690000001 205.735867079022 1.04689075 0 0 0
5069 1 121.05500710000001 178.173203920978 1.04689075 0 0 0
5070 1 119.350007 181.126321089511 1.04689075 0 0 0
5071 1 124.464990249999 178.173203920978 1.04689075 0 0 0
5072 1 122.75999014999901 181.126321089511 1.04689075 0 0 0
5073 1 121.05500710000001 184.079467789511 1.04689075 0 0 0
5074 2 131.285024750001 199.829603210489 1.04689075 0 0 0
5075 1 127.87499044999902 178.173203920978 1.04689075 0 0 0
5076 1 126.1700074 181.126321089511 1.04689075 0 0 0
5077 1 124.464990249999 184.079467789511 1.04689075 0 0 0
5078 1 122.75999014999901 187.032644020978 1.04689075 0 0 0
5079 2 132.99002485000102 196.87645651048902 1.04689075 0 0 0
5080 1 131.284990649999 178.173203920978 1.04689075 0 0 0
5081 1 129.58000760000002 181.126321089511 1.04689075 0 0 0
5082 1 127.87499044999902 184.079467789511 1.04689075 0 0 0
5083 1 126.1700074 187.032644020978 1.04689075 0 0 0
5084 1 124.464990249999 189.985761189511 1.04689075 0 0 0
5085 1 134.69499084999902 178.173203920978 1.04689075 0 0 0
5086 1 132.989990749999 181.126321089511 1.04689075 0 0 0
5087 1 131.284990649999 184.079467789511 1.04689075 0 0 0
5088 1 129.58000760000002 187.032644020978 1.04689075 0 0 0
5089 1 127.87499044999902 189.985761189511 1.04689075 0 0 0
5090 2 119.350007 179.15757631048902 1.04689075 0 0 0
5091 2 122.76000720000002 179.15757631048902 1.04689075 0 0 0
5092 2 121.055024150001 182.11069347902202 1.04689075 0 0 0
5093 2 119.350007 185.063840179022 1.04689075 0 0 0
5094 2 126.1700074 179.15757631048902 1.04689075 0 0 0
5095 2 124.46502435000102 182.11069347902202 1.04689075 0 0 0
5096 2 122.76000720000002 185.063840179022 1.04689075 0 0 0
5097 2 134.6950079 193.923280279022 1.04689075 0 0 0
5098 2 124.46502435000102 205.735867079022 1.04689075 0 0 0
5099 2 129.580024650001 179.15757631048902 1.04689075 0 0 0
5100 2 127.87500750000001 182.11069347902202 1.04689075 0 0 0
5101 2 126.1700074 185.063840179022 1.04689075 0 0 0
5102 2 124.46502435000102 188.01701641048902 1.04689075 0 0 0
5103 2 126.1700074 202.782749910489 1.04689075 0 0 0
5104 2 132.99002485000102 179.15757631048902 1.04689075 0 0 0
5105 2 131.285024750001 182.11069347902202 1.04689075 0 0 0
5106 2 129.580024650001 185.063840179022 1.04689075 0 0 0
5107 2 127.87500750000001 188.01701641048902 1.04689075 0 0 0
5108 2 126.1700074 190.97013357902202 1.04689075 0 0 0
5109 2 127.87500750000001 199.829603210489 1.04689075 0 0 0
5110 2 129.580024650001 196.87645651048902 1.04689075 0 0 0
5111 2 131.285024750001 193.923280279022 1.04689075 0 0 0
5112 1 119.350007 198.845201289511 1.04689075 0 0 0
5113 1 126.1700074 192.93893742097802 1.04689075 0 0 0
5114 1 124.464990249999 195.89205458951102 1.04689075 0 0 0
5115 1 122.75999014999901 198.845201289511 1.04689075 0 0 0
5116 1 121.05500710000001 201.798347989511 1.04689075 0 0 0
5117 1 119.350007 204.751524220978 1.04689075 0 0 0
5118 2 121.055024150001 205.735867079022 1.04689075 0 0 0
5119 2 122.76000720000002 202.782749910489 1.04689075 0 0 0
5120 2 124.46502435000102 193.923280279022 1.04689075 0 0 0
5121 2 122.76000720000002 196.87645651048902 1.04689075 0 0 0
5122 2 121.055024150001 199.829603210489 1.04689075 0 0 0
5123 2 119.350007 202.782749910489 1.04689075 0 0 0
5124 1 134.69499084999902 184.079467789511 1.04689075 0 0 0
5125 1 132.989990749999 187.032644020978 1.04689075 0 0 0
5126 1 131.284990649999 189.985761189511 1.04689075 0 0 0
5127 1 134.69499084999902 189.985761189511 1.04689075 0 0 0
5128 2 134.6950079 182.11069347902202 1.04689075 0 0 0
5129 2 132.99002485000102 185.063840179022 1.04689075 0 0 0
5130 2 131.285024750001 188.01701641048902 1.04689075 0 0 0
5131 2 129.580024650001 190.97013357902202 1.04689075 0 0 0
5132 2 134.6950079 188.01701641048902 1.04689075 0 0 0
5133 2 132.99002485000102 190.97013357902202 1.04689075 0 0 0
5134 1 129.58000760000002 192.93893742097802 1.04689075 0 0 0
5135 1 127.87499044999902 195.89205458951102 1.04689075 0 0 0
5136 1 126.1700074 198.845201289511 1.04689075 0 0 0
5137 1 124.464990249999 201.798347989511 1.04689075 0 0 0
5138 1 122.75999014999901 204.751524220978 1.04689075 0 0 0
5139 1 132.989990749999 192.93893742097802 1.04689075 0 0 0
5140 1 131.284990649999 195.89205458951102 1.04689075 0 0 0
5141 1 129.58000760000002 198.845201289511 1.04689075 0 0 0
5142 1 127.87499044999902 201.798347989511 1.04689075 0 0 0
5143 1 126.1700074 204.751524220978 1.04689075 0 0 0
5144 1 134.69499084999902 195.89205458951102 1.04689075 0 0 0
5145 1 132.989990749999 198.845201289511 1.04689075 0 0 0
5146 1 131.284990649999 201.798347989511 1.04689075 0 0 0
5147 1 129.58000760000002 204.751524220978 1.04689075 0 0 0
5148 1 134.69499084999902 201.798347989511 1.04689075 0 0 0
5149 1 132.989990749999 204.751524220978 1.04689075 0 0 0
5150 2 127.87500750000001 193.923280279022 1.04689075 0 0 0
5151 2 126.1700074 196.87645651048902 1.04689075 0 0 0
5152 2 124.46502435000102 199.829603210489 1.04689075 0 0 0
5705 1 104.00500610000002 207.704670920978 1.04689075 0 0 0
5706 1 102.30000600000001 210.657788089511 1.04689075 0 0 0
5707 1 107.41498924999901 207.704670920978 1.04689075 0 0 0
5708 1 105.709989149999 210.657788089511 1.04689075 0 0 0
5709 1 104.00500610000002 213.610934789511 1.04689075 0 0 0
5710 1 102.30000600000001 216.564111020978 1.04689075 0 0 0
5711 1 110.82498944999901 207.704670920978 1.04689075 0 0 0
5712 1 109.12000640000001 210.657788089511 1.04689075 0 0 0
5713 1 107.41498924999901 213.610934789511 1.04689075 0 0 0
5714 1 105.709989149999 216.564111020978 1.04689075 0 0 0
5715 1 104.00500610000002 219.517228189511 1.04689075 0 0 0
5716 1 114.23498964999901 207.704670920978 1.04689075 0 0 0
5717 1 112.53000660000001 210.657788089511 1.04689075 0 0 0
5718 1 110.82498944999901 213.610934789511 1.04689075 0 0 0
5719 1 109.12000640000001 216.564111020978 1.04689075 0 0 0
5720 1 107.41498924999901 219.517228189511 1.04689075 0 0 0
5721 1 117.644989849999 207.704670920978 1.04689075 0 0 0
5722 1 115.93998974999901 210.657788089511 1.04689075 0 0 0
5723 1 114.23498964999901 213.610934789511 1.04689075 0 0 0
5724 1 112.53000660000001 216.564111020978 1.04689075 0 0 0
5725 1 110.82498944999901 219.517228189511 1.04689075 0 0 0
5726 2 102.30000600000001 208.689043310489 1.04689075 0 0 0
5727 2 105.71000620000001 208.689043310489 1.04689075 0 0 0
5728 2 104.00502315000101 211.642160479022 1.04689075 0 0 0
5729 2 102.30000600000001 214.595307179022 1.04689075 0 0 0
5730 2 109.12000640000001 208.689043310489 1.04689075 0 0 0
5731 2 107.41502335000101 211.642160479022 1.04689075 0 0 0
5732 2 105.71000620000001 214.595307179022 1.04689075 0 0 0
5733 2 104.00502315000101 217.548483410489 1.04689075 0 0 0
5734 2 102.30000600000001 220.501600579022 1.04689075 0 0 0
5735 2 112.53002365000101 208.689043310489 1.04689075 0 0 0
5736 2 110.82500650000001 211.642160479022 1.04689075 0 0 0
5737 2 109.12000640000001 214.595307179022 1.04689075 0 0 0
5738 2 107.41502335000101 217.548483410489 1.04689075 0 0 0
5739 2 105.71000620000001 220.501600579022 1.04689075 0 0 0
5740 2 115.94002385000101 208.689043310489 1.04689075 0 0 0
5741 2 114.235023750001 211.642160479022 1.04689075 0 0 0
5742 2 112.53002365000101 214.595307179022 1.04689075 0 0 0
5743 2 110.82500650000001 217.548483410489 1.04689075 0 0 0
5744 2 109.12000640000001 220.501600579022 1.04689075 0 0 0
5745 1 102.30000600000001 222.470404420978 1.04689075 0 0 0
5746 1 105.709989149999 222.470404420978 1.04689075 0 0 0
5747 1 104.00500610000002 225.423521589511 1.04689075 0 0 0
5748 1 102.30000600000001 228.376668289511 1.04689075 0 0 0
5749 1 109.12000640000001 222.470404420978 1.04689075 0 0 0
5750 1 107.41498924999901 225.423521589511 1.04689075 0 0 0
5751 1 105.709989149999 228.376668289511 1.04689075 0 0 0
5752 1 104.00500610000002 231.329814989511 1.04689075 0 0 0
5753 1 102.30000600000001 234.282991220978 1.04689075 0 0 0
5754 2 104.00502315000101 223.454747279022 1.04689075 0 0 0
5755 2 102.30000600000001 226.407923510489 1.04689075 0 0 0
5756 2 107.41502335000101 223.454747279022 1.04689075 0 0 0
5757 2 105.71000620000001 226.407923510489 1.04689075 0 0 0
5758 2 104.00502315000101 229.361070210489 1.04689075 0 0 0
5759 2 102.30000600000001 232.314216910489 1.04689075 0 0 0
5760 1 117.644989849999 213.610934789511 1.04689075 0 0 0
5761 1 115.93998974999901 216.564111020978 1.04689075 0 0 0
5762 1 114.23498964999901 219.517228189511 1.04689075 0 0 0
5763 2 134.6950079 235.267334079022 1.04689075 0 0 0
5764 2 117.64500690000001 211.642160479022 1.04689075 0 0 0
5765 2 115.94002385000101 214.595307179022 1.04689075 0 0 0
5766 2 114.235023750001 217.548483410489 1.04689075 0 0 0
5767 2 112.53002365000101 220.501600579022 1.04689075 0 0 0
5768 2 131.285024750001 235.267334079022 1.04689075 0 0 0
5769 2 132.99002485000102 232.314216910489 1.04689075 0 0 0
5770 1 112.53000660000001 222.470404420978 1.04689075 0 0 0
5771 1 110.82498944999901 225.423521589511 1.04689075 0 0 0
5772 1 109.12000640000001 228.376668289511 1.04689075 0 0 0
5773 1 107.41498924999901 231.329814989511 1.04689075 0 0 0
5774 1 105.709989149999 234.282991220978 1.04689075 0 0 0
5775 2 134.6950079 229.361070210489 1.04689075 0 0 0
5776 1 114.23498964999901 225.423521589511 1.04689075 0 0 0
5777 1 112.53000660000001 228.376668289511 1.04689075 0 0 0
5778 1 110.82498944999901 231.329814989511 1.04689075 0 0 0
5779 1 109.12000640000001 234.282991220978 1.04689075 0 0 0
5780 2 127.87500750000001 235.267334079022 1.04689075 0 0 0
5781 1 115.93998974999901 228.376668289511 1.04689075 0 0 0
5782 1 114.23498964999901 231.329814989511 1.04689075 0 0 0
5783 1 112.53000660000001 234.282991220978 1.04689075 0 0 0
5784 1 117.644989849999 231.329814989511 1.04689075 0 0 0
5785 1 115.93998974999901 234.282991220978 1.04689075 0 0 0
5786 2 110.82500650000001 223.454747279022 1.04689075 0 0 0
5787 2 109.12000640000001 226.407923510489 1.04689075 0 0 0
5788 2 107.41502335000101 229.361070210489 1.04689075 0 0 0
5789 2 105.71000620000001 232.314216910489 1.04689075 0 0 0
5790 2 104.00502315000101 235.267334079022 1.04689075 0 0 0
5791 2 114.235023750001 223.454747279022 1.04689075 0 0 0
5792 2 112.53002365000101 226.407923510489 1.04689075 0 0 0
5793 2 110.82500650000001 229.361070210489 1.04689075 0 0 0
5794 2 109.12000640000001 232.314216910489 1.04689075 0 0 0
5795 2 107.41502335000101 235.267334079022 1.04689075 0 0 0
5796 2 129.580024650001 232.314216910489 1.04689075 0 0 0
5797 2 115.94002385000101 226.407923510489 1.04689075 0 0 0
5798 2 114.235023750001 229.361070210489 1.04689075 0 0 0
5799 2 112.53002365000101 232.314216910489 1.04689075 0 0 0
5800 2 110.82500650000001 235.267334079022 1.04689075 0 0 0
5801 2 117.64500690000001 229.361070210489 1.04689075 0 0 0
5802 2 115.94002385000101 232.314216910489 1.04689075 0 0 0
5803 2 114.235023750001 235.267334079022 1.04689075 0 0 0
5804 2 117.64500690000001 235.267334079022 1.04689075 0 0 0
5805 1 121.05500710000001 207.704670920978 1.04689075 0 0 0
5806 1 119.350007 210.657788089511 1.04689075 0 0 0
5807 1 124.464990249999 207.704670920978 1.04689075 0 0 0
5808 1 122.75999014999901 210.657788089511 1.04689075 0 0 0
5809 1 121.05500710000001 213.610934789511 1.04689075 0 0 0
5810 2 131.285024750001 229.361070210489 1.04689075 0 0 0
5811 1 127.87499044999902 207.704670920978 1.04689075 0 0 0
5812 1 126.1700074 210.657788089511 1.04689075 0 0 0
5813 1 124.464990249999 213.610934789511 1.04689075 0 0 0
5814 1 122.75999014999901 216.564111020978 1.04689075 0 0 0
5815 2 132.99002485000102 226.407923510489 1.04689075 0 0 0
5816 1 131.284990649999 207.704670920978 1.04689075 0 0 0
5817 1 129.58000760000002 210.657788089511 1.04689075 0 0 0
5818 1 127.87499044999902 213.610934789511 1.04689075 0 0 0
5819 1 126.1700074 216.564111020978 1.04689075 0 0 0
5820 1 124.464990249999 219.517228189511 1.04689075 0 0 0
5821 1 134.69499084999902 207.704670920978 1.04689075 0 0 0
5822 1 132.989990749999 210.657788089511 1.04689075 0 0 0
5823 1 131.284990649999 213.610934789511 1.04689075 0 0 0
5824 1 129.58000760000002 216.564111020978 1.04689075 0 0 0
5825 1 127.87499044999902 219.517228189511 1.04689075 0 0 0
5826 2 119.350007 208.689043310489 1.04689075 0 0 0
5827 2 122.76000720000002 208.689043310489 1.04689075 0 0 0
5828 2 121.055024150001 211.642160479022 1.04689075 0 0 0
5829 2 119.350007 214.595307179022 1.04689075 0 0 0
5830 2 126.1700074 208.689043310489 1.04689075 0 0 0
5831 2 124.46502435000102 211.642160479022 1.04689075 0 0 0
5832 2 122.76000720000002 214.595307179022 1.04689075 0 0 0
5833 2 134.6950079 223.454747279022 1.04689075 0 0 0
5834 2 124.46502435000102 235.267334079022 1.04689075 0 0 0
5835 2 129.580024650001 208.689043310489 1.04689075 0 0 0
5836 2 127.87500750000001 211.642160479022 1.04689075 0 0 0
5837 2 126.1700074 214.595307179022 1.04689075 0 0 0
5838 2 124.46502435000102 217.548483410489 1.04689075 0 0 0
5839 2 126.1700074 232.314216910489 1.04689075 0 0 0
5840 2 132.99002485000102 208.689043310489 1.04689075 0 0 0
5841 2 131.285024750001 211.642160479022 1.04689075 0 0 0
5842 2 129.580024650001 214.595307179022 1.04689075 0 0 0
5843 2 127.87500750000001 217.548483410489 1.04689075 0 0 0
5844 2 126.1700074 220.501600579022 1.04689075 0 0 0
5845 2 127.87500750000001 229.361070210489 1.04689075 0 0 0
5846 2 129.580024650001 226.407923510489 1.04689075 0 0 0
5847 2 131.285024750001 223.454747279022 1.04689075 0 0 0
5848 1 119.350007 228.376668289511 1.04689075 0 0 0
5849 1 126.1700074 222.470404420978 1.04689075 0 0 0
5850 1 124.464990249999 225.423521589511 1.04689075 0 0 0
5851 1 122.75999014999901 228.376668289511 1.04689075 0 0 0
5852 1 121.05500710000001 231.329814989511 1.04689075 0 0 0
5853 1 119.350007 234.282991220978 1.04689075 0 0 0
5854 2 121.055024150001 235.267334079022 1.04689075 0 0 0
5855 2 122.76000720000002 232.314216910489 1.04689075 0 0 0
5856 2 124.46502435000102 223.454747279022 1.04689075 0 0 0
5857 2 122.76000720000002 226.407923510489 1.04689075 0 0 0
5858 2 121.055024150001 229.361070210489 1.04689075 0 0 0
5859 2 119.350007 232.314216910489 1.04689075 0 0 0
5860 1 134.69499084999902 213.610934789511 1.04689075 0 0 0
5861 1 132.989990749999 216.564111020978 1.04689075 0 0 0
5862 1 131.284990649999 219.517228189511 1.04689075 0 0 0
5863 1 134.69499084999902 219.517228189511 1.04689075 0 0 0
5864 2 134.6950079 211.642160479022 1.04689075 0 0 0
5865 2 132.99002485000102 214.595307179022 1.04689075 0 0 0
5866 2 131.285024750001 217.548483410489 1.04689075 0 0 0
5867 2 129.580024650001 220.501600579022 1.04689075 0 0 0
5868 2 134.6950079 217.548483410489 1.04689075 0 0 0
5869 2 132.99002485000102 220.501600579022 1.04689075 0 0 0
5870 1 129.58000760000002 222.470404420978 1.04689075 0 0 0
5871 1 127.87499044999902 225.423521589511 1.04689075 0 0 0
5872 1 126.1700074 228.376668289511 1.04689075 0 0 0
5873 1 124.464990249999 231.329814989511 1.04689075 0 0 0
5874 1 122.75999014999901 234.282991220978 1.04689075 0 0 0
5875 1 132.989990749999 222.470404420978 1.04689075 0 0 0
5876 1 131.284990649999 225.423521589511 1.04689075 0 0 0
5877 1 129.58000760000002 228.376668289511 1.04689075 0 0 0
5878 1 127.87499044999902 231.329814989511 1.04689075 0 0 0
5879 1 126.1700074 234.282991220978 1.04689075 0 0 0
5880 1 134.69499084999902 225.423521589511 1.04689075 0 0 0
5881 1 132.989990749999 228.376668289511 1.04689075 0 0 0
5882 1 131.284990649999 231.329814989511 1.04689075 0 0 0
5883 1 129.58000760000002 234.282991220978 1.04689075 0 0 0
5884 1 134.69499084999902 231.329814989511 1.04689075 0 0 0
5885 1 132.989990749999 234.282991220978 1.04689075 0 0 0
5886 2 127.87500750000001 223.454747279022 1.04689075 0 0 0
5887 2 126.1700074 226.407923510489 1.04689075 0 0 0
5888 2 124.46502435000102 229.361070210489 1.04689075 0 0 0
6441 1 104.00500610000002 237.236137920978 1.04689075 0 0 0
6442 1 102.30000600000001 240.189255089511 1.04689075 0 0 0
6443 1 107.41498924999901 237.236137920978 1.04689075 0 0 0
6444 1 105.709989149999 240.189255089511 1.04689075 0 0 0
6445 1 104.00500610000002 243.14240178951098 1.04689075 0 0 0
6446 1 102.30000600000001 246.095578020978 1.04689075 0 0 0
6447 1 110.82498944999901 237.236137920978 1.04689075 0 0 0
6448 1 109.12000640000001 240.189255089511 1.04689075 0 0 0
6449 1 107.41498924999901 243.14240178951098 1.04689075 0 0 0
6450 1 105.709989149999 246.095578020978 1.04689075 0 0 0
6451 1 104.00500610000002 249.048695189511 1.04689075 0 0 0
6452 1 114.23498964999901 237.236137920978 1.04689075 0 0 0
6453 1 112.53000660000001 240.189255089511 1.04689075 0 0 0
6454 1 110.82498944999901 243.14240178951098 1.04689075 0 0 0
6455 1 109.12000640000001 246.095578020978 1.04689075 0 0 0
6456 1 107.41498924999901 249.048695189511 1.04689075 0 0 0
6457 1 117.644989849999 237.236137920978 1.04689075 0 0 0
6458 1 115.93998974999901 240.189255089511 1.04689075 0 0 0
6459 1 114.23498964999901 243.14240178951098 1.04689075 0 0 0
6460 1 112.53000660000001 246.095578020978 1.04689075 0 0 0
6461 1 110.82498944999901 249.048695189511 1.04689075 0 0 0
6462 2 102.30000600000001 238.220510310489 1.04689075 0 0 0
6463 2 105.71000620000001 238.220510310489 1.04689075 0 0 0
6464 2 104.00502315000101 241.173627479022 1.04689075 0 0 0
6465 2 102.30000600000001 244.126774179022 1.04689075 0 0 0
6466 2 109.12000640000001 238.220510310489 1.04689075 0 0 0
6467 2 107.41502335000101 241.173627479022 1.04689075 0 0 0
6468 2 105.71000620000001 244.126774179022 1.04689075 0 0 0
6469 2 104.00502315000101 247.079950410489 1.04689075 0 0 0
6470 2 102.30000600000001 250.033067579022 1.04689075 0 0 0
6471 2 112.53002365000101 238.220510310489 1.04689075 0 0 0
6472 2 110.82500650000001 241.173627479022 1.04689075 0 0 0
6473 2 109.12000640000001 244.126774179022 1.04689075 0 0 0
6474 2 107.41502335000101 247.079950410489 1.04689075 0 0 0
6475 2 105.71000620000001 250.033067579022 1.04689075 0 0 0
6476 2 115.94002385000101 238.220510310489 1.04689075 0 0 0
6477 2 114.235023750001 241.173627479022 1.04689075 0 0 0
6478 2 112.53002365000101 244.126774179022 1.04689075 0 0 0
6479 2 110.82500650000001 247.079950410489 1.04689075 0 0 0
6480 2 109.12000640000001 250.033067579022 1.04689075 0 0 0
6481 1 102.30000600000001 252.001871420978 1.04689075 0 0 0
6482 1 105.709989149999 252.001871420978 1.04689075 0 0 0
6483 1 104.00500610000002 254.954988589511 1.04689075 0 0 0
6484 1 102.30000600000001 257.908135289511 1.04689075 0 0 0
6485 1 109.12000640000001 252.001871420978 1.04689075 0 0 0
6486 1 107.41498924999901 254.954988589511 1.04689075 0 0 0
6487 1 105.709989149999 257.908135289511 1.04689075 0 0 0
6488 1 104.00500610000002 260.861281989511 1.04689075 0 0 0
6489 1 102.30000600000001 263.814458220978 1.04689075 0 0 0
6490 2 104.00502315000101 252.986214279022 1.04689075 0 0 0
6491 2 102.30000600000001 255.939390510489 1.04689075 0 0 0
6492 2 107.41502335000101 252.986214279022 1.04689075 0 0 0
6493 2 105.71000620000001 255.939390510489 1.04689075 0 0 0
6494 2 104.00502315000101 258.89253721048897 1.04689075 0 0 0
6495 2 102.30000600000001 261.845683910489 1.04689075 0 0 0
6496 1 117.644989849999 243.14240178951098 1.04689075 0 0 0
6497 1 115.93998974999901 246.095578020978 1.04689075 0 0 0
6498 1 114.23498964999901 249.048695189511 1.04689075 0 0 0
6499 2 134.6950079 264.798801079022 1.04689075 0 0 0
6500 2 117.64500690000001 241.173627479022 1.04689075 0 0 0
6501 2 115.94002385000101 244.126774179022 1.04689075 0 0 0
6502 2 114.235023750001 247.079950410489 1.04689075 0 0 0
6503 2 112.53002365000101 250.033067579022 1.04689075 0 0 0
6504 2 131.285024750001 264.798801079022 1.04689075 0 0 0
6505 2 132.99002485000102 261.845683910489 1.04689075 0 0 0
6506 1 112.53000660000001 252.001871420978 1.04689075 0 0 0
6507 1 110.82498944999901 254.954988589511 1.04689075 0 0 0
6508 1 109.12000640000001 257.908135289511 1.04689075 0 0 0
6509 1 107.41498924999901 260.861281989511 1.04689075 0 0 0
6510 1 105.709989149999 263.814458220978 1.04689075 0 0 0
6511 2 134.6950079 258.89253721048897 1.04689075 0 0 0
6512 1 114.23498964999901 254.954988589511 1.04689075 0 0 0
6513 1 112.53000660000001 257.908135289511 1.04689075 0 0 0
6514 1 110.82498944999901 260.861281989511 1.04689075 0 0 0
6515 1 109.12000640000001 263.814458220978 1.04689075 0 0 0
6516 2 127.87500750000001 264.798801079022 1.04689075 0 0 0
6517 1 115.93998974999901 257.908135289511 1.04689075 0 0 0
6518 1 114.23498964999901 260.861281989511 1.04689075 0 0 0
6519 1 112.53000660000001 263.814458220978 1.04689075 0 0 0
6520 1 117.644989849999 260.861281989511 1.04689075 0 0 0
6521 1 115.93998974999901 263.814458220978 1.04689075 0 0 0
6522 2 110.82500650000001 252.986214279022 1.04689075 0 0 0
6523 2 109.12000640000001 255.939390510489 1.04689075 0 0 0
6524 2 107.41502335000101 258.89253721048897 1.04689075 0 0 0
6525 2 105.71000620000001 261.845683910489 1.04689075 0 0 0
6526 2 104.00502315000101 264.798801079022 1.04689075 0 0 0
6527 2 114.235023750001 252.986214279022 1.04689075 0 0 0
6528 2 112.53002365000101 255.939390510489 1.04689075 0 0 0
6529 2 110.82500650000001 258.89253721048897 1.04689075 0 0 0
6530 2 109.12000640000001 261.845683910489 1.04689075 0 0 0
6531 2 107.41502335000101 264.798801079022 1.04689075 0 0 0
6532 2 129.580024650001 261.845683910489 1.04689075 0 0 0
6533 2 115.94002385000101 255.939390510489 1.04689075 0 0 0
6534 2 114.235023750001 258.89253721048897 1.04689075 0 0 0
6535 2 112.53002365000101 261.845683910489 1.04689075 0 0 0
6536 2 110.82500650000001 264.798801079022 1.04689075 0 0 0
6537 2 117.64500690000001 258.89253721048897 1.04689075 0 0 0
6538 2 115.94002385000101 261.845683910489 1.04689075 0 0 0
6539 2 114.235023750001 264.798801079022 1.04689075 0 0 0
6540 2 117.64500690000001 264.798801079022 1.04689075 0 0 0
6541 1 121.05500710000001 237.236137920978 1.04689075 0 0 0
6542 1 119.350007 240.189255089511 1.04689075 0 0 0
6543 1 124.464990249999 237.236137920978 1.04689075 0 0 0
6544 1 122.75999014999901 240.189255089511 1.04689075 0 0 0
6545 1 121.05500710000001 243.14240178951098 1.04689075 0 0 0
6546 2 131.285024750001 258.89253721048897 1.04689075 0 0 0
6547 1 127.87499044999902 237.236137920978 1.04689075 0 0 0
6548 1 126.1700074 240.189255089511 1.04689075 0 0 0
6549 1 124.464990249999 243.14240178951098 1.04689075 0 0 0
6550 1 122.75999014999901 246.095578020978 1.04689075 0 0 0
6551 2 132.99002485000102 255.939390510489 1.04689075 0 0 0
6552 1 131.284990649999 237.236137920978 1.04689075 0 0 0
6553 1 129.58000760000002 240.189255089511 1.04689075 0 0 0
6554 1 127.87499044999902 243.14240178951098 1.04689075 0 0 0
6555 1 126.1700074 246.095578020978 1.04689075 0 0 0
6556 1 124.464990249999 249.048695189511 1.04689075 0 0 0
6557 1 134.69499084999902 237.236137920978 1.04689075 0 0 0
6558 1 132.989990749999 240.189255089511 1.04689075 0 0 0
6559 1 131.284990649999 243.14240178951098 1.04689075 0 0 0
6560 1 129.58000760000002 246.095578020978 1.04689075 0 0 0
6561 1 127.87499044999902 249.048695189511 1.04689075 0 0 0
6562 2 119.350007 238.220510310489 1.04689075 0 0 0
6563 2 122.76000720000002 238.220510310489 1.04689075 0 0 0
6564 2 121.055024150001 241.173627479022 1.04689075 0 0 0
6565 2 119.350007 244.126774179022 1.04689075 0 0 0
6566 2 126.1700074 238.220510310489 1.04689075 0 0 0
6567 2 124.46502435000102 241.173627479022 1.04689075 0 0 0
6568 2 122.76000720000002 244.126774179022 1.04689075 0 0 0
6569 2 134.6950079 252.986214279022 1.04689075 0 0 0
6570 2 124.46502435000102 264.798801079022 1.04689075 0 0 0
6571 2 129.580024650001 238.220510310489 1.04689075 0 0 0
6572 2 127.87500750000001 241.173627479022 1.04689075 0 0 0
6573 2 126.1700074 244.126774179022 1.04689075 0 0 0
6574 2 124.46502435000102 247.079950410489 1.04689075 0 0 0
6575 2 126.1700074 261.845683910489 1.04689075 0 0 0
6576 2 132.99002485000102 238.220510310489 1.04689075 0 0 0
6577 2 131.285024750001 241.173627479022 1.04689075 0 0 0
6578 2 129.580024650001 244.126774179022 1.04689075 0 0 0
6579 2 127.87500750000001 247.079950410489 1.04689075 0 0 0
6580 2 126.1700074 250.033067579022 1.04689075 0 0 0
6581 2 127.87500750000001 258.89253721048897 1.04689075 0 0 0
6582 2 129.580024650001 255.939390510489 1.04689075 0 0 0
6583 2 131.285024750001 252.986214279022 1.04689075 0 0 0
6584 1 119.350007 257.908135289511 1.04689075 0 0 0
6585 1 126.1700074 252.001871420978 1.04689075 0 0 0
6586 1 124.464990249999 254.954988589511 1.04689075 0 0 0
6587 1 122.75999014999901 257.908135289511 1.04689075 0 0 0
6588 1 121.05500710000001 260.861281989511 1.04689075 0 0 0
6589 1 119.350007 263.814458220978 1.04689075 0 0 0
6590 2 121.055024150001 264.798801079022 1.04689075 0 0 0
6591 2 122.76000720000002 261.845683910489 1.04689075 0 0 0
6592 2 124.46502435000102 252.986214279022 1.04689075 0 0 0
6593 2 122.76000720000002 255.939390510489 1.04689075 0 0 0
6594 2 121.055024150001 258.89253721048897 1.04689075 0 0 0
6595 2 119.350007 261.845683910489 1.04689075 0 0 0
6596 1 134.69499084999902 243.14240178951098 1.04689075 0 0 0
6597 1 132.989990749999 246.095578020978 1.04689075 0 0 0
6598 1 131.284990649999 249.048695189511 1.04689075 0 0 0
6599 1 134.69499084999902 249.048695189511 1.04689075 0 0 0
6600 2 134.6950079 241.173627479022 1.04689075 0 0 0
6601 2 132.99002485000102 244.126774179022 1.04689075 0 0 0
6602 2 131.285024750001 247.079950410489 1.04689075 0 0 0
6603 2 129.580024650001 250.033067579022 1.04689075 0 0 0
6604 2 134.6950079 247.079950410489 1.04689075 0 0 0
6605 2 132.99002485000102 250.033067579022 1.04689075 0 0 0
6606 1 129.58000760000002 252.001871420978 1.04689075 0 0 0
6607 1 127.87499044999902 254.954988589511 1.04689075 0 0 0
6608 1 126.1700074 257.908135289511 1.04689075 0 0 0
6609 1 124.464990249999 260.861281989511 1.04689075 0 0 0
6610 1 122.75999014999901 263.814458220978 1.04689075 0 0 0
6611 1 132.989990749999 252.001871420978 1.04689075 0 0 0
6612 1 131.284990649999 254.954988589511 1.04689075 0 0 0
6613 1 129.58000760000002 257.908135289511 1.04689075 0 0 0
6614 1 127.87499044999902 260.861281989511 1.04689075 0 0 0
6615 1 126.1700074 263.814458220978 1.04689075 0 0 0
6616 1 134.69499084999902 254.954988589511 1.04689075 0 0 0
6617 1 132.989990749999 257.908135289511 1.04689075 0 0 0
6618 1 131.284990649999 260.861281989511 1.04689075 0 0 0
6619 1 129.58000760000002 263.814458220978 1.04689075 0 0 0
6620 1 134.69499084999902 260.861281989511 1.04689075 0 0 0
6621 1 132.989990749999 263.814458220978 1.04689075 0 0 0
6622 2 127.87500750000001 252.986214279022 1.04689075 0 0 0
6623 2 126.1700074 255.939390510489 1.04689075 0 0 0
6624 2 124.46502435000102 258.89253721048897 1.04689075 0 0 0
7177 1 104.00500610000002 266.767604920978 1.04689075 0 0 0
7178 1 102.30000600000001 269.720722089511 1.04689075 0 0 0
7179 1 107.41498924999901 266.767604920978 1.04689075 0 0 0
7180 1 105.709989149999 269.720722089511 1.04689075 0 0 0
7181 1 104.00500610000002 272.673868789511 1.04689075 0 0 0
7182 1 102.30000600000001 275.627045020978 1.04689075 0 0 0
7183 1 110.82498944999901 266.767604920978 1.04689075 0 0 0
7184 1 109.12000640000001 269.720722089511 1.04689075 0 0 0
7185 1 107.41498924999901 272.673868789511 1.04689075 0 0 0
7186 1 105.709989149999 275.627045020978 1.04689075 0 0 0
7187 1 104.00500610000002 278.58016218951104 1.04689075 0 0 0
7188 1 114.23498964999901 266.767604920978 1.04689075 0 0 0
7189 1 112.53000660000001 269.720722089511 1.04689075 0 0 0
7190 1 110.82498944999901 272.673868789511 1.04689075 0 0 0
7191 1 109.12000640000001 275.627045020978 1.04689075 0 0 0
7192 1 107.41498924999901 278.58016218951104 1.04689075 0 0 0
7193 1 117.644989849999 266.767604920978 1.04689075 0 0 0
7194 1 115.93998974999901 269.720722089511 1.04689075 0 0 0
7195 1 114.23498964999901 272.673868789511 1.04689075 0 0 0
7196 1 112.53000660000001 275.627045020978 1.04689075 0 0 0
7197 1 110.82498944999901 278.58016218951104 1.04689075 0 0 0
7198 2 102.30000600000001 267.751977310489 1.04689075 0 0 0
7199 2 105.71000620000001 267.751977310489 1.04689075 0 0 0
7200 2 104.00502315000101 270.705094479022 1.04689075 0 0 0
7201 2 102.30000600000001 273.658241179022 1.04689075 0 0 0
7202 2 109.12000640000001 267.751977310489 1.04689075 0 0 0
7203 2 107.41502335000101 270.705094479022 1.04689075 0 0 0
7204 2 105.71000620000001 273.658241179022 1.04689075 0 0 0
7205 2 104.00502315000101 276.611417410489 1.04689075 0 0 0
7206 2 102.30000600000001 279.564534579022 1.04689075 0 0 0
7207 2 112.53002365000101 267.751977310489 1.04689075 0 0 0
7208 2 110.82500650000001 270.705094479022 1.04689075 0 0 0
7209 2 109.12000640000001 273.658241179022 1.04689075 0 0 0
7210 2 107.41502335000101 276.611417410489 1.04689075 0 0 0
7211 2 105.71000620000001 279.564534579022 1.04689075 0 0 0
7212 2 115.94002385000101 267.751977310489 1.04689075 0 0 0
7213 2 114.235023750001 270.705094479022 1.04689075 0 0 0
7214 2 112.53002365000101 273.658241179022 1.04689075 0 0 0
7215 2 110.82500650000001 276.611417410489 1.04689075 0 0 0
7216 2 109.12000640000001 279.564534579022 1.04689075 0 0 0
7217 1 102.30000600000001 281.533338420978 1.04689075 0 0 0
7218 1 105.709989149999 281.533338420978 1.04689075 0 0 0
7219 1 104.00500610000002 284.486455589511 1.04689075 0 0 0
7220 1 102.30000600000001 287.439602289511 1.04689075 0 0 0
7221 1 109.12000640000001 281.533338420978 1.04689075 0 0 0
7222 1 107.41498924999901 284.486455589511 1.04689075 0 0 0
7223 1 105.709989149999 287.439602289511 1.04689075 0 0 0
7224 1 104.00500610000002 290.392748989511 1.04689075 0 0 0
7225 1 102.30000600000001 293.345925220978 1.04689075 0 0 0
7226 2 104.00502315000101 282.517681279022 1.04689075 0 0 0
7227 2 102.30000600000001 285.470857510489 1.04689075 0 0 0
7228 2 107.41502335000101 282.517681279022 1.04689075 0 0 0
7229 2 105.71000620000001 285.470857510489 1.04689075 0 0 0
7230 2 104.00502315000101 288.424004210489 1.04689075 0 0 0
7231 2 102.30000600000001 291.37715091048904 1.04689075 0 0 0
7232 1 117.644989849999 272.673868789511 1.04689075 0 0 0
7233 1 115.93998974999901 275.627045020978 1.04689075 0 0 0
7234 1 114.23498964999901 278.58016218951104 1.04689075 0 0 0
7235 2 134.6950079 294.330268079022 1.04689075 0 0 0
7236 2 117.64500690000001 270.705094479022 1.04689075 0 0 0
7237 2 115.94002385000101 273.658241179022 1.04689075 0 0 0
7238 2 114.235023750001 276.611417410489 1.04689075 0 0 0
7239 2 112.53002365000101 279.564534579022 1.04689075 0 0 0
7240 2 131.285024750001 294.330268079022 1.04689075 0 0 0
7241 2 132.99002485000102 291.37715091048904 1.04689075 0 0 0
7242 1 112.53000660000001 281.533338420978 1.04689075 0 0 0
7243 1 110.82498944999901 284.486455589511 1.04689075 0 0 0
7244 1 109.12000640000001 287.439602289511 1.04689075 0 0 0
7245 1 107.41498924999901 290.392748989511 1.04689075 0 0 0
7246 1 105.709989149999 293.345925220978 1.04689075 0 0 0
7247 2 134.6950079 288.424004210489 1.04689075 0 0 0
7248 1 114.23498964999901 284.486455589511 1.04689075 0 0 0
7249 1 112.53000660000001 287.439602289511 1.04689075 0 0 0
7250 1 110.82498944999901 290.392748989511 1.04689075 0 0 0
7251 1 109.12000640000001 293.345925220978 1.04689075 0 0 0
7252 2 127.87500750000001 294.330268079022 1.04689075 0 0 0
7253 1 115.93998974999901 287.439602289511 1.04689075 0 0 0
7254 1 114.23498964999901 290.392748989511 1.04689075 0 0 0
7255 1 112.53000660000001 293.345925220978 1.04689075 0 0 0
7256 1 117.644989849999 290.392748989511 1.04689075 0 0 0
7257 1 115.93998974999901 293.345925220978 1.04689075 0 0 0
7258 2 110.82500650000001 282.517681279022 1.04689075 0 0 0
7259 2 109.12000640000001 285.470857510489 1.04689075 0 0 0
7260 2 107.41502335000101 288.424004210489 1.04689075 0 0 0
7261 2 105.71000620000001 291.37715091048904 1.04689075 0 0 0
7262 2 104.00502315000101 294.330268079022 1.04689075 0 0 0
7263 2 114.235023750001 282.517681279022 1.04689075 0 0 0
7264 2 112.53002365000101 285.470857510489 1.04689075 0 0 0
7265 2 110.82500650000001 288.424004210489 1.04689075 0 0 0
7266 2 109.12000640000001 291.37715091048904 1.04689075 0 0 0
7267 2 107.41502335000101 294.330268079022 1.04689075 0 0 0
7268 2 129.580024650001 291.37715091048904 1.04689075 0 0 0
7269 2 115.94002385000101 285.470857510489 1.04689075 0 0 0
7270 2 114.235023750001 288.424004210489 1.04689075 0 0 0
7271 2 112.53002365000101 291.37715091048904 1.04689075 0 0 0
7272 2 110.82500650000001 294.330268079022 1.04689075 0 0 0
7273 2 117.64500690000001 288.424004210489 1.04689075 0 0 0
7274 2 115.94002385000101 291.37715091048904 1.04689075 0 0 0
7275 2 114.235023750001 294.330268079022 1.04689075 0 0 0
7276 2 117.64500690000001 294.330268079022 1.04689075 0 0 0
7277 1 121.05500710000001 266.767604920978 1.04689075 0 0 0
7278 1 119.350007 269.720722089511 1.04689075 0 0 0
7279 1 124.464990249999 266.767604920978 1.04689075 0 0 0
7280 1 122.75999014999901 269.720722089511 1.04689075 0 0 0
7281 1 121.05500710000001 272.673868789511 1.04689075 0 0 0
7282 2 131.285024750001 288.424004210489 1.04689075 0 0 0
7283 1 127.87499044999902 266.767604920978 1.04689075 0 0 0
7284 1 126.1700074 269.720722089511 1.04689075 0 0 0
7285 1 124.464990249999 272.673868789511 1.04689075 0 0 0
7286 1 122.75999014999901 275.627045020978 1.04689075 0 0 0
7287 2 132.99002485000102 285.470857510489 1.04689075 0 0 0
7288 1 131.284990649999 266.767604920978 1.04689075 0 0 0
7289 1 129.58000760000002 269.720722089511 1.04689075 0 0 0
7290 1 127.87499044999902 272.673868789511 1.04689075 0 0 0
7291 1 126.1700074 275.627045020978 1.04689075 0 0 0
7292 1 124.464990249999 278.58016218951104 1.04689075 0 0 0
7293 1 134.69499084999902 266.767604920978 1.04689075 0 0 0
7294 1 132.989990749999 269.720722089511 1.04689075 0 0 0
7295 1 131.284990649999 272.673868789511 1.04689075 0 0 0
7296 1 129.58000760000002 275.627045020978 1.04689075 0 0 0
7297 1 127.87499044999902 278.58016218951104 1.04689075 0 0 0
7298 2 119.350007 267.751977310489 1.04689075 0 0 0
7299 2 122.76000720000002 267.751977310489 1.04689075 0 0 0
7300 2 121.055024150001 270.705094479022 1.04689075 0 0 0
7301 2 119.350007 273.658241179022 1.04689075 0 0 0
7302 2 126.1700074 267.751977310489 1.04689075 0 0 0
7303 2 124.46502435000102 270.705094479022 1.04689075 0 0 0
7304 2 122.76000720000002 273.658241179022 1.04689075 0 0 0
7305 2 134.6950079 282.517681279022 1.04689075 0 0 0
7306 2 124.46502435000102 294.330268079022 1.04689075 0 0 0
7307 2 129.580024650001 267.751977310489 1.04689075 0 0 0
7308 2 127.87500750000001 270.705094479022 1.04689075 0 0 0
7309 2 126.1700074 273.658241179022 1.04689075 0 0 0
7310 2 124.46502435000102 276.611417410489 1.04689075 0 0 0
7311 2 126.1700074 291.37715091048904 1.04689075 0 0 0
7312 2 132.99002485000102 267.751977310489 1.04689075 0 0 0
7313 2 131.285024750001 270.705094479022 1.04689075 0 0 0
7314 2 129.580024650001 273.658241179022 1.04689075 0 0 0
7315 2 127.87500750000001 276.611417410489 1.04689075 0 0 0
7316 2 126.1700074 279.564534579022 1.04689075 0 0 0
7317 2 127.87500750000001 288.424004210489 1.04689075 0 0 0
7318 2 129.580024650001 285.470857510489 1.04689075 0 0 0
7319 2 131.285024750001 282.517681279022 1.04689075 0 0 0
7320 1 119.350007 287.439602289511 1.04689075 0 0 0
7321 1 126.1700074 281.533338420978 1.04689075 0 0 0
7322 1 124.464990249999 284.486455589511 1.04689075 0 0 0
7323 1 122.75999014999901 287.439602289511 1.04689075 0 0 0
7324 1 121.05500710000001 290.392748989511 1.04689075 0 0 0
7325 1 119.350007 293.345925220978 1.04689075 0 0 0
7326 2 121.055024150001 294.330268079022 1.04689075 0 0 0
7327 2 122.76000720000002 291.37715091048904 1.04689075 0 0 0
7328 2 124.46502435000102 282.517681279022 1.04689075 0 0 0
7329 2 122.76000720000002 285.470857510489 1.04689075 0 0 0
7330 2 121.055024150001 288.424004210489 1.04689075 0 0 0
7331 2 119.350007 291.37715091048904 1.04689075 0 0 0
7332 1 134.69499084999902 272.673868789511 1.04689075 0 0 0
7333 1 132.989990749999 275.627045020978 1.04689075 0 0 0
7334 1 131.284990649999 278.58016218951104 1.04689075 0 0 0
7335 1 134.69499084999902 278.58016218951104 1.04689075 0 0 0
7336 2 134.6950079 270.705094479022 1.04689075 0 0 0
7337 2 132.99002485000102 273.658241179022 1.04689075 0 0 0
7338 2 131.285024750001 276.611417410489 1.04689075 0 0 0
7339 2 129.580024650001 279.564534579022 1.04689075 0 0 0
7340 2 134.6950079 276.611417410489 1.04689075 0 0 0
7341 2 132.99002485000102 279.564534579022 1.04689075 0 0 0
7342 1 129.58000760000002 281.533338420978 1.04689075 0 0 0
7343 1 127.87499044999902 284.486455589511 1.04689075 0 0 0
7344 1 126.1700074 287.439602289511 1.04689075 0 0 0
7345 1 124.464990249999 290.392748989511 1.04689075 0 0 0
7346 1 122.75999014999901 293.345925220978 1.04689075 0 0 0
7347 1 132.989990749999 281.533338420978 1.04689075 0 0 0
7348 1 131.284990649999 284.486455589511 1.04689075 0 0 0
7349 1 129.58000760000002 287.439602289511 1.04689075 0 0 0
7350 1 127.87499044999902 290.392748989511 1.04689075 0 0 0
7351 1 126.1700074 293.345925220978 1.04689075 0 0 0
7352 1 134.69499084999902 284.486455589511 1.04689075 0 0 0
7353 1 132.989990749999 287.439602289511 1.04689075 0 0 0
7354 1 131.284990649999 290.392748989511 1.04689075 0 0 0
7355 1 129.58000760000002 293.345925220978 1.04689075 0 0 0
7356 1 134.69499084999902 290.392748989511 1.04689075 0 0 0
7357 1 132.989990749999 293.345925220978 1.04689075 0 0 0
7358 2 127.87500750000001 282.517681279022 1.04689075 0 0 0
7359 2 126.1700074 285.470857510489 1.04689075 0 0 0
7360 2 124.46502435000102 288.424004210489 1.04689075 0 0 0
7913 1 104.00500610000002 296.29907192097795 1.04689075 0 0 0
7914 1 102.30000600000001 299.252189089511 1.04689075 0 0 0
7915 1 107.41498924999901 296.29907192097795 1.04689075 0 0 0
7916 1 105.709989149999 299.252189089511 1.04689075 0 0 0
7917 1 104.00500610000002 302.20533578951097 1.04689075 0 0 0
7918 1 102.30000600000001 305.158512020978 1.04689075 0 0 0
7919 1 110.82498944999901 296.29907192097795 1.04689075 0 0 0
7920 1 109.12000640000001 299.252189089511 1.04689075 0 0 0
7921 1 107.41498924999901 302.20533578951097 1.04689075 0 0 0
7922 1 105.709989149999 305.158512020978 1.04689075 0 0 0
7923 1 104.00500610000002 308.11162918951095 1.04689075 0 0 0
7924 1 114.23498964999901 296.29907192097795 1.04689075 0 0 0
7925 1 112.53000660000001 299.252189089511 1.04689075 0 0 0
7926 1 110.82498944999901 302.20533578951097 1.04689075 0 0 0
7927 1 109.12000640000001 305.158512020978 1.04689075 0 0 0
7928 1 107.41498924999901 308.11162918951095 1.04689075 0 0 0
7929 1 117.644989849999 296.29907192097795 1.04689075 0 0 0
7930 1 115.93998974999901 299.252189089511 1.04689075 0 0 0
7931 1 114.23498964999901 302.20533578951097 1.04689075 0 0 0
7932 1 112.53000660000001 305.158512020978 1.04689075 0 0 0
7933 1 110.82498944999901 308.11162918951095 1.04689075 0 0 0
7934 2 102.30000600000001 297.28344431048896 1.04689075 0 0 0
7935 2 105.71000620000001 297.28344431048896 1.04689075 0 0 0
7936 2 104.00502315000101 300.236561479022 1.04689075 0 0 0
7937 2 102.30000600000001 303.189708179022 1.04689075 0 0 0
7938 2 109.12000640000001 297.28344431048896 1.04689075 0 0 0
7939 2 107.41502335000101 300.236561479022 1.04689075 0 0 0
7940 2 105.71000620000001 303.189708179022 1.04689075 0 0 0
7941 2 104.00502315000101 306.142884410489 1.04689075 0 0 0
7942 2 102.30000600000001 309.09600157902196 1.04689075 0 0 0
7943 2 112.53002365000101 297.28344431048896 1.04689075 0 0 0
7944 2 110.82500650000001 300.236561479022 1.04689075 0 0 0
7945 2 109.12000640000001 303.189708179022 1.04689075 0 0 0
7946 2 107.41502335000101 306.142884410489 1.04689075 0 0 0
7947 2 105.71000620000001 309.09600157902196 1.04689075 0 0 0
7948 2 115.94002385000101 297.28344431048896 1.04689075 0 0 0
7949 2 114.235023750001 300.236561479022 1.04689075 0 0 0
7950 2 112.53002365000101 303.189708179022 1.04689075 0 0 0
7951 2 110.82500650000001 306.142884410489 1.04689075 0 0 0
7952 2 109.12000640000001 309.09600157902196 1.04689075 0 0 0
7953 1 102.30000600000001 311.06480542097796 1.04689075 0 0 0
7954 1 105.709989149999 311.06480542097796 1.04689075 0 0 0
7955 1 104.00500610000002 314.017922589511 1.04689075 0 0 0
7956 1 102.30000600000001 316.971069289511 1.04689075 0 0 0
7957 1 109.12000640000001 311.06480542097796 1.04689075 0 0 0
7958 1 107.41498924999901 314.017922589511 1.04689075 0 0 0
7959 1 105.709989149999 316.971069289511 1.04689075 0 0 0
7960 1 104.00500610000002 319.92421598951097 1.04689075 0 0 0
7961 1 102.30000600000001 322.877392220978 1.04689075 0 0 0
7962 2 104.00502315000101 312.049148279022 1.04689075 0 0 0
7963 2 102.30000600000001 315.00232451048896 1.04689075 0 0 0
7964 2 107.41502335000101 312.049148279022 1.04689075 0 0 0
7965 2 105.71000620000001 315.00232451048896 1.04689075 0 0 0
7966 2 104.00502315000101 317.95547121048895 1.04689075 0 0 0
7967 2 102.30000600000001 320.908617910489 1.04689075 0 0 0
7968 1 117.644989849999 302.20533578951097 1.04689075 0 0 0
7969 1 115.93998974999901 305.158512020978 1.04689075 0 0 0
7970 1 114.23498964999901 308.11162918951095 1.04689075 0 0 0
7971 2 134.6950079 323.86173507902197 1.04689075 0 0 0
7972 2 117.64500690000001 300.236561479022 1.04689075 0 0 0
7973 2 115.94002385000101 303.189708179022 1.04689075 0 0 0
7974 2 114.235023750001 306.142884410489 1.04689075 0 0 0
7975 2 112.53002365000101 309.09600157902196 1.04689075 0 0 0
7976 2 131.285024750001 323.86173507902197 1.04689075 0 0 0
7977 2 132.99002485000102 320.908617910489 1.04689075 0 0 0
7978 1 112.53000660000001 311.06480542097796 1.04689075 0 0 0
7979 1 110.82498944999901 314.017922589511 1.04689075 0 0 0
7980 1 109.12000640000001 316.971069289511 1.04689075 0 0 0
7981 1 107.41498924999901 319.92421598951097 1.04689075 0 0 0
7982 1 105.709989149999 322.877392220978 1.04689075 0 0 0
7983 2 134.6950079 317.95547121048895 1.04689075 0 0 0
7984 1 114.23498964999901 314.017922589511 1.04689075 0 0 0
7985 1 112.53000660000001 316.971069289511 1.04689075 0 0 0
7986 1 110.82498944999901 319.92421598951097 1.04689075 0 0 0
7987 1 109.12000640000001 322.877392220978 1.04689075 0 0 0
7988 2 127.87500750000001 323.86173507902197 1.04689075 0 0 0
7989 1 115.93998974999901 316.971069289511 1.04689075 0 0 0
7990 1 114.23498964999901 319.92421598951097 1.04689075 0 0 0
7991 1 112.53000660000001 322.877392220978 1.04689075 0 0 0
7992 1 117.644989849999 319.92421598951097 1.04689075 0 0 0
7993 1 115.93998974999901 322.877392220978 1.04689075 0 0 0
7994 2 110.82500650000001 312.049148279022 1.04689075 0 0 0
7995 2 109.12000640000001 315.00232451048896 1.04689075 0 0 0
7996 2 107.41502335000101 317.95547121048895 1.04689075 0 0 0
7997 2 105.71000620000001 320.908617910489 1.04689075 0 0 0
7998 2 104.00502315000101 323.86173507902197 1.04689075 0 0 0
7999 2 114.235023750001 312.049148279022 1.04689075 0 0 0
8000 2 112.53002365000101 315.00232451048896 1.04689075 0 0 0
8001 2 110.82500650000001 317.95547121048895 1.04689075 0 0 0
8002 2 109.12000640000001 320.908617910489 1.04689075 0 0 0
8003 2 107.41502335000101 323.86173507902197 1.04689075 0 0 0
8004 2 129.580024650001 320.908617910489 1.04689075 0 0 0
8005 2 115.94002385000101 315.00232451048896 1.04689075 0 0 0
8006 2 114.235023750001 317.95547121048895 1.04689075 0 0 0
8007 2 112.53002365000101 320.908617910489 1.04689075 0 0 0
8008 2 110.82500650000001 323.86173507902197 1.04689075 0 0 0
8009 2 117.64500690000001 317.95547121048895 1.04689075 0 0 0
8010 2 115.94002385000101 320.908617910489 1.04689075 0 0 0
8011 2 114.235023750001 323.86173507902197 1.04689075 0 0 0
8012 2 117.64500690000001 323.86173507902197 1.04689075 0 0 0
8013 1 121.05500710000001 296.29907192097795 1.04689075 0 0 0
8014 1 119.350007 299.252189089511 1.04689075 0 0 0
8015 1 124.464990249999 296.29907192097795 1.04689075 0 0 0
8016 1 122.75999014999901 299.252189089511 1.04689075 0 0 0
8017 1 121.05500710000001 302.20533578951097 1.04689075 0 0 0
8018 2 131.285024750001 317.95547121048895 1.04689075 0 0 0
8019 1 127.87499044999902 296.29907192097795 1.04689075 0 0 0
8020 1 126.1700074 299.252189089511 1.04689075 0 0 0
8021 1 124.464990249999 302.20533578951097 1.04689075 0 0 0
8022 1 122.75999014999901 305.158512020978 1.04689075 0 0 0
8023 2 132.99002485000102 315.00232451048896 1.04689075 0 0 0
8024 1 131.284990649999 296.29907192097795 1.04689075 0 0 0
8025 1 129.58000760000002 299.252189089511 1.04689075 0 0 0
8026 1 127.87499044999902 302.20533578951097 1.04689075 0 0 0
8027 1 126.1700074 305.158512020978 1.04689075 0 0 0
8028 1 124.464990249999 308.11162918951095 1.04689075 0 0 0
8029 1 134.69499084999902 296.29907192097795 1.04689075 0 0 0
8030 1 132.989990749999 299.252189089511 1.04689075 0 0 0
8031 1 131.284990649999 302.20533578951097 1.04689075 0 0 0
8032 1 129.58000760000002 305.158512020978 1.04689075 0 0 0
8033 1 127.87499044999902 308.11162918951095 1.04689075 0 0 0
8034 2 119.350007 297.28344431048896 1.04689075 0 0 0
8035 2 122.76000720000002 297.28344431048896 1.04689075 0 0 0
8036 2 121.055024150001 300.236561479022 1.04689075 0 0 0
8037 2 119.350007 303.189708179022 1.04689075 0 0 0
8038 2 126.1700074 297.28344431048896 1.04689075 0 0 0
8039 2 124.46502435000102 300.236561479022 1.04689075 0 0 0
8040 2 122.76000720000002 303.189708179022 1.04689075 0 0 0
8041 2 134.6950079 312.049148279022 1.04689075 0 0 0
8042 2 124.46502435000102 323.86173507902197 1.04689075 0 0 0
8043 2 129.580024650001 297.28344431048896 1.04689075 0 0 0
8044 2 127.87500750000001 300.236561479022 1.04689075 0 0 0
8045 2 126.1700074 303.189708179022 1.04689075 0 0 0
8046 2 124.46502435000102 306.142884410489 1.04689075 0 0 0
8047 2 126.1700074 320.908617910489 1.04689075 0 0 0
8048 2 132.99002485000102 297.28344431048896 1.04689075 0 0 0
8049 2 131.285024750001 300.236561479022 1.04689075 0 0 0
8050 2 129.580024650001 303.189708179022 1.04689075 0 0 0
8051 2 127.87500750000001 306.142884410489 1.04689075 0 0 0
8052 2 126.1700074 309.09600157902196 1.04689075 0 0 0
8053 2 127.87500750000001 317.95547121048895 1.04689075 0 0 0
8054 2 129.580024650001 315.00232451048896 1.04689075 0 0 0
8055 2 131.285024750001 312.049148279022 1.04689075 0 0 0
8056 1 119.350007 316.971069289511 1.04689075 0 0 0
8057 1 126.1700074 311.06480542097796 1.04689075 0 0 0
8058 1 124.464990249999 314.017922589511 1.04689075 0 0 0
8059 1 122.75999014999901 316.971069289511 1.04689075 0 0 0
8060 1 121.05500710000001 319.92421598951097 1.04689075 0 0 0
8061 1 119.350007 322.877392220978 1.04689075 0 0 0
8062 2 121.055024150001 323.86173507902197 1.04689075 0 0 0
8063 2 122.76000720000002 320.908617910489 1.04689075 0 0 0
8064 2 124.46502435000102 312.049148279022 1.04689075 0 0 0
8065 2 122.76000720000002 315.00232451048896 1.04689075 0 0 0
8066 2 121.055024150001 317.95547121048895 1.04689075 0 0 0
8067 2 119.350007 320.908617910489 1.04689075 0 0 0
8068 1 134.69499084999902 302.20533578951097 1.04689075 0 0 0
8069 1 132.989990749999 305.158512020978 1.04689075 0 0 0
8070 1 131.284990649999 308.11162918951095 1.04689075 0 0 0
8071 1 134.69499084999902 308.11162918951095 1.04689075 0 0 0
8072 2 134.6950079 300.236561479022 1.04689075 0 0 0
8073 2 132.99002485000102 303.189708179022 1.04689075 0 0 0
8074 2 131.285024750001 306.142884410489 1.04689075 0 0 0
8075 2 129.580024650001 309.09600157902196 1.04689075 0 0 0
8076 2 134.6950079 306.142884410489 1.04689075 0 0 0
8077 2 132.99002485000102 309.09600157902196 1.04689075 0 0 0
8078 1 129.58000760000002 311.06480542097796 1.04689075 0 0 0
8079 1 127.87499044999902 314.017922589511 1.04689075 0 0 0
8080 1 126.1700074 316.971069289511 1.04689075 0 0 0
8081 1 124.464990249999 319.92421598951097 1.04689075 0 0 0
8082 1 122.75999014999901 322.877392220978 1.04689075 0 0 0
8083 1 132.989990749999 311.06480542097796 1.04689075 0 0 0
8084 1 131.284990649999 314.017922589511 1.04689075 0 0 0
8085 1 129.58000760000002 316.971069289511 1.04689075 0 0 0
8086 1 127.87499044999902 319.92421598951097 1.04689075 0 0 0
8087 1 126.1700074 322.877392220978 1.04689075 0 0 0
8088 1 134.69499084999902 314.017922589511 1.04689075 0 0 0
8089 1 132.989990749999 316.971069289511 1.04689075 0 0 0
8090 1 131.284990649999 319.92421598951097 1.04689075 0 0 0
8091 1 129.58000760000002 322.877392220978 1.04689075 0 0 0
8092 1 134.69499084999902 319.92421598951097 1.04689075 0 0 0
8093 1 132.989990749999 322.877392220978 1.04689075 0 0 0
8094 2 127.87500750000001 312.049148279022 1.04689075 0 0 0
8095 2 126.1700074 315.00232451048896 1.04689075 0 0 0
8096 2 124.46502435000102 317.95547121048895 1.04689075 0 0 0

Velocities

1 0 0 0
2 0 0 0
3 0 0 0
4 0 0 0
5 0 0 0
6 0 0 0
7 0 0 0
8 0 0 0
9 0 0 0
10 0 0 0
11 0 0 0
12 0 0 0
13 0 0 0
14 0 0 0
15 0 0 0
16 0 0 0
17 0 0 0
18 0 0 0
19 0 0 0
20 0 0 0
21 0 0 0
22 0 0 0
23 0 0 0
24 0 0 0
25 0 0 0
26 0 0 0
27 0 0 0
28 0 0 0
29 0 0 0
30 0 0 0
31 0 0 0
32 0 0 0
33 0 0 0
34 0 0 0
35 0 0 0
36 0 0 0
37 0 0 0
38 0 0 0
39 0 0 0
40 0 0 0
41 0 0 0
42 0 0 0
43 0 0 0
44 0 0 0
45 0 0 0
46 0 0 0
47 0 0 0
48 0 0 0
49 0 0 0
50 0 0 0
51 0 0 0
52 0 0 0
53 0 0 0
54 0 0 0
55 0 0 0
56 0 0 0
57 0 0 0
58 0 0 0
59 0 0 0
60 0 0 0
61 0 0 0
62 0 0 0
63 0 0 0
64 0 0 0
65 0 0 0
66 0 0 0
67 0 0 0
68 0 0 0
69 0 0 0
70 0 0 0
71 0 0 0
72 0 0 0
73 0 0 0
74 0 0 0
75 0 0 0
76 0 0 0
77 0 0 0
78 0 0 0
79 0 0 0
80 0 0 0
81 0 0 0
82 0 0 0
83 0 0 0
84 0 0 0
85 0 0 0
86 0 0 0
87 0 0 0
88 0 0 0
89 0 0 0
90 0 0 0
91 0 0 0
92 0 0 0
93 0 0 0
94 0 0 0
95 0 0 0
96 0 0 0
97 0 0 0
98 0 0 0
99 0 0 0
100 0 0 0
101 0 0 0
102 0 0 0
103 0 0 0
104 0 0 0
105 0 0 0
106 0 0 0
107 0 0 0
108 0 0 0
109 0 0 0
110 0 0 0
111 0 0 0
112 0 0 0
113 0 0 0
114 0 0 0
115 0 0 0
116 0 0 0
117 0 0 0
118 0 0 0
119 0 0 0
120 0 0 0
121 0 0 0
122 0 0 0
123 0 0 0
124 0 0 0
125 0 0 0
126 0 0 0
127 0 0 0
128 0 0 0
129 0 0 0
130 0 0 0
131 0 0 0
132 0 0 0
133 0 0 0
134 0 0 0
135 0 0 0
136 0 0 0
137 0 0 0
138 0 0 0
139 0 0 0
140 0 0 0
141 0 0 0
142 0 0 0
143 0 0 0
144 0 0 0
145 0 0 0
146 0 0 0
147 0 0 0
148 0 0 0
149 0 0 0
150 0 0 0
151 0 0 0
152 0 0 0
153 0 0 0
154 0 0 0
155 0 0 0
156 0 0 0
157 0 0 0
158 0 0 0
159 0 0 0
160 0 0 0
161 0 0 0
162 0 0 0
163 0 0 0
164 0 0 0
165 0 0 0
166 0 0 0
167 0 0 0
168 0 0 0
169 0 0 0
170 0 0 0
171 0 0 0
172 0 0 0
173 0 0 0
174 0 0 0
175 0 0 0
176 0 0 0
177 0 0 0
178 0 0 0
179 0 0 0
180 0 0 0
181 0 0 0
182 0 0 0
183 0 0 0
184 0 0 0
737 0 0 0
738 0 0 0
739 0 0 0
740 0 0 0
741 0 0 0
742 0 0 0
743 0 0 0
744 0 0 0
745 0 0 0
746 0 0 0
747 0 0 0
748 0 0 0
749 0 0 0
750 0 0 0
751 0 0 0
752 0 0 0
753 0 0 0
754 0 0 0
755 0 0 0
756 0 0 0
757 0 0 0
758 0 0 0
759 0 0 0
760 0 0 0
761 0 0 0
762 0 0 0
763 0 0 0
764 0 0 0
765 0 0 0
766 0 0 0
767 0 0 0
768 0 0 0
769 0 0 0
770 0 0 0
771 0 0 0
772 0 0 0
773 0 0 0
774 0 0 0
775 0 0 0
776 0 0 0
777 0 0 0
778 0 0 0
779 0 0 0
780 0 0 0
781 0 0 0
782 0 0 0
783 0 0 0
784 0 0 0
785 0 0 0
786 0 0 0
787 0 0 0
788 0 0 0
789 0 0 0
790 0 0 0
791 0 0 0
792 0 0 0
793 0 0 0
794 0 0 0
795 0 0 0
796 0 0 0
797 0 0 0
798 0 0 0
799 0 0 0
800 0 0 0
801 0 0 0
802 0 0 0
803 0 0 0
804 0 0 0
805 0 0 0
806 0 0 0
807 0 0 0
808 0 0 0
809 0 0 0
810 0 0 0
811 0 0 0
812 0 0 0
813 0 0 0
814 0 0 0
815 0 0 0
816 0 0 0
817 0 0 0
818 0 0 0
819 0 0 0
820 0 0 0
821 0 0 0
822 0 0 0
823 0 0 0
824 0 0 0
825 0 0 0
826 0 0 0
827 0 0 0
828 0 0 0
829 0 0 0
830 0 0 0
831 0 0 0
832 0 0 0
833 0 0 0
834 0 0 0
835 0 0 0
836 0 0 0
837 0 0 0
838 0 0 0
839 0 0 0
840 0 0 0
841 0 0 0
842 0 0 0
843 0 0 0
844 0 0 0
845 0 0 0
846 0 0 0
847 0 0 0
848 0 0 0
849 0 0 0
850 0 0 0
851 0 0 0
852 0 0 0
853 0 0 0
854 0 0 0
855 0 0 0
856 0 0 0
857 0 0 0
858 0 0 0
859 0 0 0
860 0 0 0
861 0 0 0
862 0 0 0
863 0 0 0
864 0 0 0
865 0 0 0
866 0 0 0
867 0 0 0
868 0 0 0
869 0 0 0
870 0 0 0
871 0 0 0
872 0 0 0
873 0 0 0
874 0 0 0
875 0 0 0
876 0 0 0
877 0 0 0
878 0 0 0
879 0 0 0
880 0 0 0
881 0 0 0
882 0 0 0
883 0 0 0
884 0 0 0
885 0 0 0
886 0 0 0
887 0 0 0
888 0 0 0
889 0 0 0
890 0 0 0
891 0 0 0
892 0 0 0
893 0 0 0
894 0 0 0
895 0 0 0
896 0 0 0
897 0 0 0
898 0 0 0
899 0 0 0
900 0 0 0
901 0 0 0
902 0 0 0
903 0 0 0
904 0 0 0
905 0 0 0
906 0 0 0
907 0 0 0
908 0 0 0
909 0 0 0
910 0 0 0
911 0 0 0
912 0 0 0
913 0 0 0
914 0 0 0
915 0 0 0
916 0 0 0
917 0 0 0
918 0 0 0
919 0 0 0
920 0 0 0
1473 0 0 0
1474 0 0 0
1475 0 0 0
1476 0 0 0
1477 0 0 0
1478 0 0 0
1479 0 0 0
1480 0 0 0
1481 0 0 0
1482 0 0 0
1483 0 0 0
1484 0 0 0
1485 0 0 0
1486 0 0 0
1487 0 0 0
1488 0 0 0
1489 0 0 0
1490 0 0 0
1491 0 0 0
1492 0 0 0
1493 0 0 0
1494 0 0 0
1495 0 0 0
1496 0 0 0
1497 0 0 0
1498 0 0 0
1499 0 0 0
1500 0 0 0
1501 0 0 0
1502 0 0 0
1503 0 0 0
1504 0 0 0
1505 0 0 0
1506 0 0 0
1507 0 0 0
1508 0 0 0
1509 0 0 0
1510 0 0 0
1511 0 0 0
1512 0 0 0
1513 0 0 0
1514 0 0 0
1515 0 0 0
1516 0 0 0
1517 0 0 0
1518 0 0 0
1519 0 0 0
1520 0 0 0
1521 0 0 0
1522 0 0 0
1523 0 0 0
1524 0 0 0
1525 0 0 0
1526 0 0 0
1527 0 0 0
1528 0 0 0
1529 0 0 0
1530 0 0 0
1531 0 0 0
1532 0 0 0
1533 0 0 0
1534 0 0 0
1535 0 0 0
1536 0 0 0
1537 0 0 0
1538 0 0 0
1539 0 0 0
1540 0 0 0
1541 0 0 0
1542 0 0 0
1543 0 0 0
1544 0 0 0
1545 0 0 0
1546 0 0 0
1547 0 0 0
1548 0 0 0
1549 0 0 0
1550 0 0 0
1551 0 0 0
1552 0 0 0
1553 0 0 0
1554 0 0 0
1555 0 0 0
1556 0 0 0
1557 0 0 0
1558 0 0 0
1559 0 0 0
1560 0 0 0
1561 0 0 0
1562 0 0 0
1563 0 0 0
1564 0 0 0
1565 0 0 0
1566 0 0 0
1567 0 0 0
1568 0 0 0
1569 0 0 0
1570 0 0 0
1571 0 0 0
1572 0 0 0
1573 0 0 0
1574 0 0 0
1575 0 0 0
1576 0 0 0
1577 0 0 0
1578 0 0 0
1579 0 0 0
1580 0 0 0
1581 0 0 0
1582 0 0 0
1583 0 0 0
1584 0 0 0
1585 0 0 0
1586 0 0 0
1587 0 0 0
1588 0 0 0
1589 0 0 0
1590 0 0 0
1591 0 0 0
1592 0 0 0
1593 0 0 0
1594 0 0 0
1595 0 0 0
1596 0 0 0
1597 0 0 0
1598 0 0 0
1599 0 0 0
1600 0 0 0
1601 0 0 0
1602 0 0 0
1603 0 0 0
1604 0 0 0
1605 0 0 0
1606 0 0 0
1607 0 0 0
1608 0 0 0
1609 0 0 0
1610 0 0 0
1611 0 0 0
1612 0 0 0
1613 0 0 0
1614 0 0 0
1615 0 0 0
1616 0 0 0
1617 0 0 0
1618 0 0 0
1619 0 0 0
1620 0 0 0
1621 0 0 0
1622 0 0 0
1623 0 0 0
1624 0 0 0
1625 0 0 0
1626 0 0 0
1627 0 0 0
1628 0 0 0
1629 0 0 0
1630 0 0 0
1631 0 0 0
1632 0 0 0
1633 0 0 0
1634 0 0 0
1635 0 0 0
1636 0 0 0
1637 0 0 0
1638 0 0 0
1639 0 0 0
1640 0 0 0
1641 0 0 0
1642 0 0 0
1643 0 0 0
1644 0 0 0
1645 0 0 0
1646 0 0 0
1647 0 0 0
1648 0 0 0
1649 0 0 0
1650 0 0 0
1651 0 0 0
1652 0 0 0
1653 0 0 0
1654 0 0 0
1655 0 0 0
1656 0 0 0
2209 0 0 0
2210 0 0 0
2211 0 0 0
2212 0 0 0
2213 0 0 0
2214 0 0 0
2215 0 0 0
2216 0 0 0
2217 0 0 0
2218 0 0 0
2219 0 0 0
2220 0 0 0
2221 0 0 0
2222 0 0 0
2223 0 0 0
2224 0 0 0
2225 0 0 0
2226 0 0 0
2227 0 0 0
2228 0 0 0
2229 0 0 0
2230 0 0 0
2231 0 0 0
2232 0 0 0
2233 0 0 0
2234 0 0 0
2235 0 0 0
2236 0 0 0
2237 0 0 0
2238 0 0 0
2239 0 0 0
2240 0 0 0
2241 0 0 0
2242 0 0 0
2243 0 0 0
2244 0 0 0
2245 0 0 0
2246 0 0 0
2247 0 0 0
2248 0 0 0
2249 0 0 0
2250 0 0 0
2251 0 0 0
2252 0 0 0
2253 0 0 0
2254 0 0 0
2255 0 0 0
2256 0 0 0
2257 0 0 0
2258 0 0 0
2259 0 0 0
2260 0 0 0
2261 0 0 0
2262 0 0 0
2263 0 0 0
2264 0 0 0
2265 0 0 0
2266 0 0 0
2267 0 0 0
2268 0 0 0
2269 0 0 0
2270 0 0 0
2271 0 0 0
2272 0 0 0
2273 0 0 0
2274 0 0 0
2275 0 0 0
2276 0 0 0
2277 0 0 0
2278 0 0 0
2279 0 0 0
2280 0 0 0
2281 0 0 0
2282 0 0 0
2283 0 0 0
2284 0 0 0
2285 0 0 0
2286 0 0 0
2287 0 0 0
2288 0 0 0
2289 0 0 0
2290 0 0 0
2291 0 0 0
2292 0 0 0
2293 0 0 0
2294 0 0 0
2295 0 0 0
2296 0 0 0
2297 0 0 0
2298 0 0 0
2299 0 0 0
2300 0 0 0
2301 0 0 0
2302 0 0 0
2303 0 0 0
2304 0 0 0
2305 0 0 0
2306 0 0 0
2307 0 0 0
2308 0 0 0
2309 0 0 0
2310 0 0 0
2311 0 0 0
2312 0 0 0
2313 0 0 0
2314 0 0 0
2315 0 0 0
2316 0 0 0
2317 0 0 0
2318 0 0 0
2319 0 0 0
2320 0 0 0
2321 0 0 0
2322 0 0 0
2323 0 0 0
2324 0 0 0
2325 0 0 0
2326 0 0 0
2327 0 0 0
2328 0 0 0
2329 0 0 0
2330 0 0 0
2331 0 0 0
2332 0 0 0
2333 0 0 0
2334 0 0 0
2335 0 0 0
2336 0 0 0
2337 0 0 0
2338 0 0 0
2339 0 0 0
2340 0 0 0
2341 0 0 0
2342 0 0 0
2343 0 0 0
2344 0 0 0
2345 0 0 0
2346 0 0 0
2347 0 0 0
2348 0 0 0
2349 0 0 0
2350 0 0 0
2351 0 0 0
2352 0 0 0
2353 0 0 0
2354 0 0 0
2355 0 0 0
2356 0 0 0
2357 0 0 0
2358 0 0 0
2359 0 0 0
2360 0 0 0
2361 0 0 0
2362 0 0 0
2363 0 0 0
2364 0 0 0
2365 0 0 0
2366 0 0 0
2367 0 0 0
2368 0 0 0
2369 0 0 0
2370 0 0 0
2371 0 0 0
2372 0 0 0
2373 0 0 0
2374 0 0 0
2375 0 0 0
2376 0 0 0
2377 0 0 0
2378 0 0 0
2379 0 0 0
2380 0 0 0
2381 0 0 0
2382 0 0 0
2383 0 0 0
2384 0 0 0
2385 0 0 0
2386 0 0 0
2387 0 0 0
2388 0 0 0
2389 0 0 0
2390 0 0 0
2391 0 0 0
2392 0 0 0
2945 0 0 0
2946 0 0 0
2947 0 0 0
2948 0 0 0
2949 0 0 0
2950 0 0 0
2951 0 0 0
2952 0 0 0
2953 0 0 0
2954 0 0 0
2955 0 0 0
2956 0 0 0
2957 0 0 0
2958 0 0 0
2959 0 0 0
2960 0 0 0
2961 0 0 0
2962 0 0 0
2963 0 0 0
2964 0 0 0
2965 0 0 0
2966 0 0 0
2967 0 0 0
2968 0 0 0
2969 0 0 0
2970 0 0 0
2971 0 0 0
2972 0 0 0
2973 0 0 0
2974 0 0 0
2975 0 0 0
2976 0 0 0
2977 0 0 0
2978 0 0 0
2979 0 0 0
2980 0 0 0
2981 0 0 0
2982 0 0 0
2983 0 0 0
2984 0 0 0
2985 0 0 0
2986 0 0 0
2987 0 0 0
2988 0 0 0
2989 0 0 0
2990 0 0 0
2991 0 0 0
2992 0 0 0
2993 0 0 0
2994 0 0 0
2995 0 0 0
2996 0 0 0
2997 0 0 0
2998 0 0 0
2999 0 0 0
3000 0 0 0
3001 0 0 0
3002 0 0 0
3003 0 0 0
3004 0 0 0
3005 0 0 0
3006 0 0 0
3007 0 0 0
3008 0 0 0
3009 0 0 0
3010 0 0 0
3011 0 0 0
3012 0 0 0
3013 0 0 0
3014 0 0 0
3015 0 0 0
3016 0 0 0
3017 0 0 0
3018 0 0 0
3019 0 0 0
3020 0 0 0
3021 0 0 0
3022 0 0 0
3023 0 0 0
3024 0 0 0
3025 0 0 0
3026 0 0 0
3027 0 0 0
3028 0 0 0
3029 0 0 0
3030 0 0 0
3031 0 0 0
3032 0 0 0
3033 0 0 0
3034 0 0 0
3035 0 0 0
3036 0 0 0
3037 0 0 0
3038 0 0 0
3039 0 0 0
3040 0 0 0
3041 0 0 0
3042 0 0 0
3043 0 0 0
3044 0 0 0
3045 0 0 0
3046 0 0 0
3047 0 0 0
3048 0 0 0
3049 0 0 0
3050 0 0 0
3051 0 0 0
3052 0 0 0
3053 0 0 0
3054 0 0 0
3055 0 0 0
3056 0 0 0
3057 0 0 0
3058 0 0 0
3059 0 0 0
3060 0 0 0
3061 0 0 0
3062 0 0 0
3063 0 0 0
3064 0 0 0
3065 0 0 0
3066 0 0 0
3067 0 0 0
3068 0 0 0
3069 0 0 0
3070 0 0 0
3071 0 0 0
3072 0 0 0
3073 0 0 0
3074 0 0 0
3075 0 0 0
3076 0 0 0
3077 0 0 0
3078 0 0 0
3079 0 0 0
3080 0 0 0
3081 0 0 0
3082 0 0 0
3083 0 0 0
3084 0 0 0
3085 0 0 0
3086 0 0 0
3087 0 0 0
3088 0 0 0
3089 0 0 0
3090 0 0 0
3091 0 0 0
3092 0 0 0
3093 0 0 0
3094 0 0 0
3095 0 0 0
3096 0 0 0
3097 0 0 0
3098 0 0 0
3099 0 0 0
3100 0 0 0
3101 0 0 0
3102 0 0 0
3103 0 0 0
3104 0 0 0
3105 0 0 0
3106 0 0 0
3107 0 0 0
3108 0 0 0
3109 0 0 0
3110 0 0 0
3111 0 0 0
3112 0 0 0
3113 0 0 0
3114 0 0 0
3115 0 0 0
3116 0 0 0
3117 0 0 0
3118 0 0 0
3119 0 0 0
3120 0 0 0
3121 0 0 0
3122 0 0 0
3123 0 0 0
3124 0 0 0
3125 0 0 0
3126 0 0 0
3127 0 0 0
3128 0 0 0
3681 0 0 0
3682 0 0 0
3683 0 0 0
3684 0 0 0
3685 0 0 0
3686 0 0 0
3687 0 0 0
3688 0 0 0
3689 0 0 0
3690 0 0 0
3691 0 0 0
3692 0 0 0
3693 0 0 0
3694 0 0 0
3695 0 0 0
3696 0 0 0
3697 0 0 0
3698 0 0 0
3699 0 0 0
3700 0 0 0
3701 0 0 0
3702 0 0 0
3703 0 0 0
3704 0 0 0
3705 0 0 0
3706 0 0 0
3707 0 0 0
3708 0 0 0
3709 0 0 0
3710 0 0 0
3711 0 0 0
3712 0 0 0
3713 0 0 0
3714 0 0 0
3715 0 0 0
3716 0 0 0
3717 0 0 0
3718 0 0 0
3719 0 0 0
3720 0 0 0
3721 0 0 0
3722 0 0 0
3723 0 0 0
3724 0 0 0
3725 0 0 0
3726 0 0 0
3727 0 0 0
3728 0 0 0
3729 0 0 0
3730 0 0 0
3731 0 0 0
3732 0 0 0
3733 0 0 0
3734 0 0 0
3735 0 0 0
3736 0 0 0
3737 0 0 0
3738 0 0 0
3739 0 0 0
3740 0 0 0
3741 0 0 0
3742 0 0 0
3743 0 0 0
3744 0 0 0
3745 0 0 0
3746 0 0 0
3747 0 0 0
3748 0 0 0
3749 0 0 0
3750 0 0 0
3751 0 0 0
3752 0 0 0
3753 0 0 0
3754 0 0 0
3755 0 0 0
3756 0 0 0
3757 0 0 0
3758 0 0 0
3759 0 0 0
3760 0 0 0
3761 0 0 0
3762 0 0 0
3763 0 0 0
3764 0 0 0
3765 0 0 0
3766 0 0 0
3767 0 0 0
3768 0 0 0
3769 0 0 0
3770 0 0 0
3771 0 0 0
3772 0 0 0
3773 0 0 0
3774 0 0 0
3775 0 0 0
3776 0 0 0
3777 0 0 0
3778 0 0 0
3779 0 0 0
3780 0 0 0
3781 0 0 0
3782 0 0 0
3783 0 0 0
3784 0 0 0
3785 0 0 0
3786 0 0 0
3787 0 0 0
3788 0 0 0
3789 0 0 0
3790 0 0 0
3791 0 0 0
3792 0 0 0
3793 0 0 0
3794 0 0 0
3795 0 0 0
3796 0 0 0
3797 0 0 0
3798 0 0 0
3799 0 0 0
3800 0 0 0
3801 0 0 0
3802 0 0 0
3803 0 0 0
3804 0 0 0
3805 0 0 0
3806 0 0 0
3807 0 0 0
3808 0 0 0
3809 0 0 0
3810 0 0 0
3811 0 0 0
3812 0 0 0
3813 0 0 0
3814 0 0 0
3815 0 0 0
3816 0 0 0
3817 0 0 0
3818 0 0 0
3819 0 0 0
3820 0 0 0
3821 0 0 0
3822 0 0 0
3823 0 0 0
3824 0 0 0
3825 0 0 0
3826 0 0 0
3827 0 0 0
3828 0 0 0
3829 0 0 0
3830 0 0 0
3831 0 0 0
3832 0 0 0
3833 0 0 0
3834 0 0 0
3835 0 0 0
3836 0 0 0
3837 0 0 0
3838 0 0 0
3839 0 0 0
3840 0 0 0
3841 0 0 0
3842 0 0 0
3843 0 0 0
3844 0 0 0
3845 0 0 0
3846 0 0 0
3847 0 0 0
3848 0 0 0
3849 0 0 0
3850 0 0 0
3851 0 0 0
3852 0 0 0
3853 0 0 0
3854 0 0 0
3855 0 0 0
3856 0 0 0
3857 0 0 0
3858 0 0 0
3859 0 0 0
3860 0 0 0
3861 0 0 0
3862 0 0 0
3863 0 0 0
3864 0 0 0
4417 0 0 0
4418 0 0 0
4419 0 0 0
4420 0 0 0
4421 0 0 0
4422 0 0 0
4423 0 0 0
4424 0 0 0
4425 0 0 0
4426 0 0 0
4427 0 0 0
4428 0 0 0
4429 0 0 0
4430 0 0 0
4431 0 0 0
4432 0 0 0
4433 0 0 0
4434 0 0 0
4435 0 0 0
4436 0 0 0
4437 0 0 0
4438 0 0 0
4439 0 0 0
4440 0 0 0
4441 0 0 0
4442 0 0 0
4443 0 0 0
4444 0 0 0
4445 0 0 0
4446 0 0 0
4447 0 0 0
4448 0 0 0
4449 0 0 0
4450 0 0 0
4451 0 0 0
4452 0 0 0
4453 0 0 0
4454 0 0 0
4455 0 0 0
4456 0 0 0
4457 0 0 0
4458 0 0 0
4459 0 0 0
4460 0 0 0
4461 0 0 0
4462 0 0 0
4463 0 0 0
4464 0 0 0
4465 0 0 0
4466 0 0 0
4467 0 0 0
4468 0 0 0
4469 0 0 0
4470 0 0 0
4471 0 0 0
4472 0 0 0
4473 0 0 0
4474 0 0 0
4475 0 0 0
4476 0 0 0
4477 0 0 0
4478 0 0 0
4479 0 0 0
4480 0 0 0
4481 0 0 0
4482 0 0 0
4483 0 0 0
4484 0 0 0
4485 0 0 0
4486 0 0 0
4487 0 0 0
4488 0 0 0
4489 0 0 0
4490 0 0 0
4491 0 0 0
4492 0 0 0
4493 0 0 0
4494 0 0 0
4495 0 0 0
4496 0 0 0
4497 0 0 0
4498 0 0 0
4499 0 0 0
4500 0 0 0
4501 0 0 0
4502 0 0 0
4503 0 0 0
4504 0 0 0
4505 0 0 0
4506 0 0 0
4507 0 0 0
4508 0 0 0
4509 0 0 0
4510 0 0 0
4511 0 0 0
4512 0 0 0
4513 0 0 0
4514 0 0 0
4515 0 0 0
4516 0 0 0
4517 0 0 0
4518 0 0 0
4519 0 0 0
4520 0 0 0
4521 0 0 0
4522 0 0 0
4523 0 0 0
4524 0 0 0
4525 0 0 0
4526 0 0 0
4527 0 0 0
4528 0 0 0
4529 0 0 0
4530 0 0 0
4531 0 0 0
4532 0 0 0
4533 0 0 0
4534 0 0 0
4535 0 0 0
4536 0 0 0
4537 0 0 0
4538 0 0 0
4539 0 0 0
4540 0 0 0
4541 0 0 0
4542 0 0 0
4543 0 0 0
4544 0 0 0
4545 0 0 0
4546 0 0 0
4547 0 0 0
4548 0 0 0
4549 0 0 0
4550 0 0 0
4551 0 0 0
4552 0 0 0
4553 0 0 0
4554 0 0 0
4555 0 0 0
4556 0 0 0
4557 0 0 0
4558 0 0 0
4559 0 0 0
4560 0 0 0
4561 0 0 0
4562 0 0 0
4563 0 0 0
4564 0 0 0
4565 0 0 0
4566 0 0 0
4567 0 0 0
4568 0 0 0
4569 0 0 0
4570 0 0 0
4571 0 0 0
4572 0 0 0
4573 0 0 0
4574 0 0 0
4575 0 0 0
4576 0 0 0
4577 0 0 0
4578 0 0 0
4579 0 0 0
4580 0 0 0
4581 0 0 0
4582 0 0 0
4583 0 0 0
4584 0 0 0
4585 0 0 0
4586 0 0 0
4587 0 0 0
4588 0 0 0
4589 0 0 0
4590 0 0 0
4591 0 0 0
4592 0 0 0
4593 0 0 0
4594 0 0 0
4595 0 0 0
4596 0 0 0
4597 0 0 0
4598 0 0 0
4599 0 0 0
4600 0 0 0
5153 0 0 0
5154 0 0 0
5155 0 0 0
5156 0 0 0
5157 0 0 0
5158 0 0 0
5159 0 0 0
5160 0 0 0
5161 0 0 0
5162 0 0 0
5163 0 0 0
5164 0 0 0
5165 0 0 0
5166 0 0 0
5167 0 0 0
5168 0 0 0
5169 0 0 0
5170 0 0 0
5171 0 0 0
5172 0 0 0
5173 0 0 0
5174 0 0 0
5175 0 0 0
5176 0 0 0
5177 0 0 0
5178 0 0 0
5179 0 0 0
5180 0 0 0
5181 0 0 0
5182 0 0 0
5183 0 0 0
5184 0 0 0
5185 0 0 0
5186 0 0 0
5187 0 0 0
5188 0 0 0
5189 0 0 0
5190 0 0 0
5191 0 0 0
5192 0 0 0
5193 0 0 0
5194 0 0 0
5195 0 0 0
5196 0 0 0
5197 0 0 0
5198 0 0 0
5199 0 0 0
5200 0 0 0
5201 0 0 0
5202 0 0 0
5203 0 0 0
5204 0 0 0
5205 0 0 0
5206 0 0 0
5207 0 0 0
5208 0 0 0
5209 0 0 0
5210 0 0 0
5211 0 0 0
5212 0 0 0
5213 0 0 0
5214 0 0 0
5215 0 0 0
5216 0 0 0
5217 0 0 0
5218 0 0 0
5219 0 0 0
5220 0 0 0
5221 0 0 0
5222 0 0 0
5223 0 0 0
5224 0 0 0
5225 0 0 0
5226 0 0 0
5227 0 0 0
5228 0 0 0
5229 0 0 0
5230 0 0 0
5231 0 0 0
5232 0 0 0
5233 0 0 0
5234 0 0 0
5235 0 0 0
5236 0 0 0
5237 0 0 0
5238 0 0 0
5239 0 0 0
5240 0 0 0
5241 0 0 0
5242 0 0 0
5243 0 0 0
5244 0 0 0
5245 0 0 0
5246 0 0 0
5247 0 0 0
5248 0 0 0
5249 0 0 0
5250 0 0 0
5251 0 0 0
5252 0 0 0
5253 0 0 0
5254 0 0 0
5255 0 0 0
5256 0 0 0
5257 0 0 0
5258 0 0 0
5259 0 0 0
5260 0 0 0
5261 0 0 0
5262 0 0 0
5263 0 0 0
5264 0 0 0
5265 0 0 0
5266 0 0 0
5267 0 0 0
5268 0 0 0
5269 0 0 0
5270 0 0 0
5271 0 0 0
5272 0 0 0
5273 0 0 0
5274 0 0 0
5275 0 0 0
5276 0 0 0
5277 0 0 0
5278 0 0 0
5279 0 0 0
5280 0 0 0
5281 0 0 0
5282 0 0 0
5283 0 0 0
5284 0 0 0
5285 0 0 0
5286 0 0 0
5287 0 0 0
5288 0 0 0
5289 0 0 0
5290 0 0 0
5291 0 0 0
5292 0 0 0
5293 0 0 0
5294 0 0 0
5295 0 0 0
5296 0 0 0
5297 0 0 0
5298 0 0 0
5299 0 0 0
5300 0 0 0
5301 0 0 0
5302 0 0 0
5303 0 0 0
5304 0 0 0
5305 0 0 0
5306 0 0 0
5307 0 0 0
5308 0 0 0
5309 0 0 0
5310 0 0 0
5311 0 0 0
5312 0 0 0
5313 0 0 0
5314 0 0 0
5315 0 0 0
5316 0 0 0
5317 0 0 0
5318 0 0 0
5319 0 0 0
5320 0 0 0
5321 0 0 0
5322 0 0 0
5323 0 0 0
5324 0 0 0
5325 0 0 0
5326 0 0 0
5327 0 0 0
5328 0 0 0
5329 0 0 0
5330 0 0 0
5331 0 0 0
5332 0 0 0
5333 0 0 0
5334 0 0 0
5335 0 0 0
5336 0 0 0
5889 0 0 0
5890 0 0 0
5891 0 0 0
5892 0 0 0
5893 0 0 0
5894 0 0 0
5895 0 0 0
5896 0 0 0
5897 0 0 0
5898 0 0 0
5899 0 0 0
5900 0 0 0
5901 0 0 0
5902 0 0 0
5903 0 0 0
5904 0 0 0
5905 0 0 0
5906 0 0 0
5907 0 0 0
5908 0 0 0
5909 0 0 0
5910 0 0 0
5911 0 0 0
5912 0 0 0
5913 0 0 0
5914 0 0 0
5915 0 0 0
5916 0 0 0
5917 0 0 0
5918 0 0 0
5919 0 0 0
5920 0 0 0
5921 0 0 0
5922 0 0 0
5923 0 0 0
5924 0 0 0
5925 0 0 0
5926 0 0 0
5927 0 0 0
5928 0 0 0
5929 0 0 0
5930 0 0 0
5931 0 0 0
5932 0 0 0
5933 0 0 0
5934 0 0 0
5935 0 0 0
5936 0 0 0
5937 0 0 0
5938 0 0 0
5939 0 0 0
5940 0 0 0
5941 0 0 0
5942 0 0 0
5943 0 0 0
5944 0 0 0
5945 0 0 0
5946 0 0 0
5947 0 0 0
5948 0 0 0
5949 0 0 0
5950 0 0 0
5951 0 0 0
5952 0 0 0
5953 0 0 0
5954 0 0 0
5955 0 0 0
5956 0 0 0
5957 0 0 0
5958 0 0 0
5959 0 0 0
5960 0 0 0
5961 0 0 0
5962 0 0 0
5963 0 0 0
5964 0 0 0
5965 0 0 0
5966 0 0 0
5967 0 0 0
5968 0 0 0
5969 0 0 0
5970 0 0 0
5971 0 0 0
5972 0 0 0
5973 0 0 0
5974 0 0 0
5975 0 0 0
5976 0 0 0
5977 0 0 0
5978 0 0 0
5979 0 0 0
5980 0 0 0
5981 0 0 0
5982 0 0 0
5983 0 0 0
5984 0 0 0
5985 0 0 0
5986 0 0 0
5987 0 0 0
5988 0 0 0
5989 0 0 0
5990 0 0 0
5991 0 0 0
5992 0 0 0
5993 0 0 0
5994 0 0 0
5995 0 0 0
5996 0 0 0
5997 0 0 0
5998 0 0 0
5999 0 0 0
6000 0 0 0
6001 0 0 0
6002 0 0 0
6003 0 0 0
6004 0 0 0
6005 0 0 0
6006 0 0 0
6007 0 0 0
6008 0 0 0
6009 0 0 0
6010 0 0 0
6011 0 0 0
6012 0 0 0
6013 0 0 0
6014 0 0 0
6015 0 0 0
6016 0 0 0
6017 0 0 0
6018 0 0 0
6019 0 0 0
6020 0 0 0
6021 0 0 0
6022 0 0 0
6023 0 0 0
6024 0 0 0
6025 0 0 0
6026 0 0 0
6027 0 0 0
6028 0 0 0
6029 0 0 0
6030 0 0 0
6031 0 0 0
6032 0 0 0
6033 0 0 0
6034 0 0 0
6035 0 0 0
6036 0 0 0
6037 0 0 0
6038 0 0 0
6039 0 0 0
6040 0 0 0
6041 0 0 0
6042 0 0 0
6043 0 0 0
6044 0 0 0
6045 0 0 0
6046 0 0 0
6047 0 0 0
6048 0 0 0
6049 0 0 0
6050 0 0 0
6051 0 0 0
6052 0 0 0
6053 0 0 0
6054 0 0 0
6055 0 0 0
6056 0 0 0
6057 0 0 0
6058 0 0 0
6059 0 0 0
6060 0 0 0
6061 0 0 0
6062 0 0 0
6063 0 0 0
6064 0 0 0
6065 0 0 0
6066 0 0 0
6067 0 0 0
6068 0 0 0
6069 0 0 0
6070 0 0 0
6071 0 0 0
6072 0 0 0
6625 0 0 0
6626 0 0 0
6627 0 0 0
6628 0 0 0
6629 0 0 0
6630 0 0 0
6631 0 0 0
6632 0 0 0
6633 0 0 0
6634 0 0 0
6635 0 0 0
6636 0 0 0
6637 0 0 0
6638 0 0 0
6639 0 0 0
6640 0 0 0
6641 0 0 0
6642 0 0 0
6643 0 0 0
6644 0 0 0
6645 0 0 0
6646 0 0 0
6647 0 0 0
6648 0 0 0
6649 0 0 0
6650 0 0 0
6651 0 0 0
6652 0 0 0
6653 0 0 0
6654 0 0 0
6655 0 0 0
6656 0 0 0
6657 0 0 0
6658 0 0 0
6659 0 0 0
6660 0 0 0
6661 0 0 0
6662 0 0 0
6663 0 0 0
6664 0 0 0
6665 0 0 0
6666 0 0 0
6667 0 0 0
6668 0 0 0
6669 0 0 0
6670 0 0 0
6671 0 0 0
6672 0 0 0
6673 0 0 0
6674 0 0 0
6675 0 0 0
6676 0 0 0
6677 0 0 0
6678 0 0 0
6679 0 0 0
6680 0 0 0
6681 0 0 0
6682 0 0 0
6683 0 0 0
6684 0 0 0
6685 0 0 0
6686 0 0 0
6687 0 0 0
6688 0 0 0
6689 0 0 0
6690 0 0 0
6691 0 0 0
6692 0 0 0
6693 0 0 0
6694 0 0 0
6695 0 0 0
6696 0 0 0
6697 0 0 0
6698 0 0 0
6699 0 0 0
6700 0 0 0
6701 0 0 0
6702 0 0 0
6703 0 0 0
6704 0 0 0
6705 0 0 0
6706 0 0 0
6707 0 0 0
6708 0 0 0
6709 0 0 0
6710 0 0 0
6711 0 0 0
6712 0 0 0
6713 0 0 0
6714 0 0 0
6715 0 0 0
6716 0 0 0
6717 0 0 0
6718 0 0 0
6719 0 0 0
6720 0 0 0
6721 0 0 0
6722 0 0 0
6723 0 0 0
6724 0 0 0
6725 0 0 0
6726 0 0 0
6727 0 0 0
6728 0 0 0
6729 0 0 0
6730 0 0 0
6731 0 0 0
6732 0 0 0
6733 0 0 0
6734 0 0 0
6735 0 0 0
6736 0 0 0
6737 0 0 0
6738 0 0 0
6739 0 0 0
6740 0 0 0
6741 0 0 0
6742 0 0 0
6743 0 0 0
6744 0 0 0
6745 0 0 0
6746 0 0 0
6747 0 0 0
6748 0 0 0
6749 0 0 0
6750 0 0 0
6751 0 0 0
6752 0 0 0
6753 0 0 0
6754 0 0 0
6755 0 0 0
6756 0 0 0
6757 0 0 0
6758 0 0 0
6759 0 0 0
6760 0 0 0
6761 0 0 0
6762 0 0 0
6763 0 0 0
6764 0 0 0
6765 0 0 0
6766 0 0 0
6767 0 0 0
6768 0 0 0
6769 0 0 0
6770 0 0 0
6771 0 0 0
6772 0 0 0
6773 0 0 0
6774 0 0 0
6775 0 0 0
6776 0 0 0
6777 0 0 0
6778 0 0 0
6779 0 0 0
6780 0 0 0
6781 0 0 0
6782 0 0 0
6783 0 0 0
6784 0 0 0
6785 0 0 0
6786 0 0 0
6787 0 0 0
6788 0 0 0
6789 0 0 0
6790 0 0 0
6791 0 0 0
6792 0 0 0
6793 0 0 0
6794 0 0 0
6795 0 0 0
6796 0 0 0
6797 0 0 0
6798 0 0 0
6799 0 0 0
6800 0 0 0
6801 0 0 0
6802 0 0 0
6803 0 0 0
6804 0 0 0
6805 0 0 0
6806 0 0 0
6807 0 0 0
6808 0 0 0
7361 0 0 0
7362 0 0 0
7363 0 0 0
7364 0 0 0
7365 0 0 0
7366 0 0 0
7367 0 0 0
7368 0 0 0
7369 0 0 0
7370 0 0 0
7371 0 0 0
7372 0 0 0
7373 0 0 0
7374 0 0 0
7375 0 0 0
7376 0 0 0
7377 0 0 0
7378 0 0 0
7379 0 0 0
7380 0 0 0
7381 0 0 0
7382 0 0 0
7383 0 0 0
7384 0 0 0
7385 0 0 0
7386 0 0 0
7387 0 0 0
7388 0 0 0
7389 0 0 0
7390 0 0 0
7391 0 0 0
7392 0 0 0
7393 0 0 0
7394 0 0 0
7395 0 0 0
7396 0 0 0
7397 0 0 0
7398 0 0 0
7399 0 0 0
7400 0 0 0
7401 0 0 0
7402 0 0 0
7403 0 0 0
7404 0 0 0
7405 0 0 0
7406 0 0 0
7407 0 0 0
7408 0 0 0
7409 0 0 0
7410 0 0 0
7411 0 0 0
7412 0 0 0
7413 0 0 0
7414 0 0 0
7415 0 0 0
7416 0 0 0
7417 0 0 0
7418 0 0 0
7419 0 0 0
7420 0 0 0
7421 0 0 0
7422 0 0 0
7423 0 0 0
7424 0 0 0
7425 0 0 0
7426 0 0 0
7427 0 0 0
7428 0 0 0
7429 0 0 0
7430 0 0 0
7431 0 0 0
7432 0 0 0
7433 0 0 0
7434 0 0 0
7435 0 0 0
7436 0 0 0
7437 0 0 0
7438 0 0 0
7439 0 0 0
7440 0 0 0
7441 0 0 0
7442 0 0 0
7443 0 0 0
7444 0 0 0
7445 0 0 0
7446 0 0 0
7447 0 0 0
7448 0 0 0
7449 0 0 0
7450 0 0 0
7451 0 0 0
7452 0 0 0
7453 0 0 0
7454 0 0 0
7455 0 0 0
7456 0 0 0
7457 0 0 0
7458 0 0 0
7459 0 0 0
7460 0 0 0
7461 0 0 0
7462 0 0 0
7463 0 0 0
7464 0 0 0
7465 0 0 0
7466 0 0 0
7467 0 0 0
7468 0 0 0
7469 0 0 0
7470 0 0 0
7471 0 0 0
7472 0 0 0
7473 0 0 0
7474 0 0 0
7475 0 0 0
7476 0 0 0
7477 0 0 0
7478 0 0 0
7479 0 0 0
7480 0 0 0
7481 0 0 0
7482 0 0 0
7483 0 0 0
7484 0 0 0
7485 0 0 0
7486 0 0 0
7487 0 0 0
7488 0 0 0
7489 0 0 0
7490 0 0 0
7491 0 0 0
7492 0 0 0
7493 0 0 0
7494 0 0 0
7495 0 0 0
7496 0 0 0
7497 0 0 0
7498 0 0 0
7499 0 0 0
7500 0 0 0
7501 0 0 0
7502 0 0 0
7503 0 0 0
7504 0 0 0
7505 0 0 0
7506 0 0 0
7507 0 0 0
7508 0 0 0
7509 0 0 0
7510 0 0 0
7511 0 0 0
7512 0 0 0
7513 0 0 0
7514 0 0 0
7515 0 0 0
7516 0 0 0
7517 0 0 0
7518 0 0 0
7519 0 0 0
7520 0 0 0
7521 0 0 0
7522 0 0 0
7523 0 0 0
7524 0 0 0
7525 0 0 0
7526 0 0 0
7527 0 0 0
7528 0 0 0
7529 0 0 0
7530 0 0 0
7531 0 0 0
7532 0 0 0
7533 0 0 0
7534 0 0 0
7535 0 0 0
7536 0 0 0
7537 0 0 0
7538 0 0 0
7539 0 0 0
7540 0 0 0
7541 0 0 0
7542 0 0 0
7543 0 0 0
7544 0 0 0
185 0 0 0
186 0 0 0
187 0 0 0
188 0 0 0
189 0 0 0
190 0 0 0
191 0 0 0
192 0 0 0
193 0 0 0
194 0 0 0
195 0 0 0
196 0 0 0
197 0 0 0
198 0 0 0
199 0 0 0
200 0 0 0
201 0 0 0
202 0 0 0
203 0 0 0
204 0 0 0
205 0 0 0
206 0 0 0
207 0 0 0
208 0 0 0
209 0 0 0
210 0 0 0
211 0 0 0
212 0 0 0
213 0 0 0
214 0 0 0
215 0 0 0
216 0 0 0
217 0 0 0
218 0 0 0
219 0 0 0
220 0 0 0
221 0 0 0
222 0 0 0
223 0 0 0
224 0 0 0
225 0 0 0
226 0 0 0
227 0 0 0
228 0 0 0
229 0 0 0
230 0 0 0
231 0 0 0
232 0 0 0
233 0 0 0
234 0 0 0
235 0 0 0
236 0 0 0
237 0 0 0
238 0 0 0
239 0 0 0
240 0 0 0
241 0 0 0
242 0 0 0
243 0 0 0
244 0 0 0
245 0 0 0
246 0 0 0
247 0 0 0
248 0 0 0
249 0 0 0
250 0 0 0
251 0 0 0
252 0 0 0
253 0 0 0
254 0 0 0
255 0 0 0
256 0 0 0
257 0 0 0
258 0 0 0
259 0 0 0
260 0 0 0
261 0 0 0
262 0 0 0
263 0 0 0
264 0 0 0
265 0 0 0
266 0 0 0
267 0 0 0
268 0 0 0
269 0 0 0
270 0 0 0
271 0 0 0
272 0 0 0
273 0 0 0
274 0 0 0
275 0 0 0
276 0 0 0
277 0 0 0
278 0 0 0
279 0 0 0
280 0 0 0
281 0 0 0
282 0 0 0
283 0 0 0
284 0 0 0
285 0 0 0
286 0 0 0
287 0 0 0
288 0 0 0
289 0 0 0
290 0 0 0
291 0 0 0
292 0 0 0
293 0 0 0
294 0 0 0
295 0 0 0
296 0 0 0
297 0 0 0
298 0 0 0
299 0 0 0
300 0 0 0
301 0 0 0
302 0 0 0
303 0 0 0
304 0 0 0
305 0 0 0
306 0 0 0
307 0 0 0
308 0 0 0
309 0 0 0
310 0 0 0
311 0 0 0
312 0 0 0
313 0 0 0
314 0 0 0
315 0 0 0
316 0 0 0
317 0 0 0
318 0 0 0
319 0 0 0
320 0 0 0
321 0 0 0
322 0 0 0
323 0 0 0
324 0 0 0
325 0 0 0
326 0 0 0
327 0 0 0
328 0 0 0
329 0 0 0
330 0 0 0
331 0 0 0
332 0 0 0
333 0 0 0
334 0 0 0
335 0 0 0
336 0 0 0
337 0 0 0
338 0 0 0
339 0 0 0
340 0 0 0
341 0 0 0
342 0 0 0
343 0 0 0
344 0 0 0
345 0 0 0
346 0 0 0
347 0 0 0
348 0 0 0
349 0 0 0
350 0 0 0
351 0 0 0
352 0 0 0
353 0 0 0
354 0 0 0
355 0 0 0
356 0 0 0
357 0 0 0
358 0 0 0
359 0 0 0
360 0 0 0
361 0 0 0
362 0 0 0
363 0 0 0
364 0 0 0
365 0 0 0
366 0 0 0
367 0 0 0
368 0 0 0
921 0 0 0
922 0 0 0
923 0 0 0
924 0 0 0
925 0 0 0
926 0 0 0
927 0 0 0
928 0 0 0
929 0 0 0
930 0 0 0
931 0 0 0
932 0 0 0
933 0 0 0
934 0 0 0
935 0 0 0
936 0 0 0
937 0 0 0
938 0 0 0
939 0 0 0
940 0 0 0
941 0 0 0
942 0 0 0
943 0 0 0
944 0 0 0
945 0 0 0
946 0 0 0
947 0 0 0
948 0 0 0
949 0 0 0
950 0 0 0
951 0 0 0
952 0 0 0
953 0 0 0
954 0 0 0
955 0 0 0
956 0 0 0
957 0 0 0
958 0 0 0
959 0 0 0
960 0 0 0
961 0 0 0
962 0 0 0
963 0 0 0
964 0 0 0
965 0 0 0
966 0 0 0
967 0 0 0
968 0 0 0
969 0 0 0
970 0 0 0
971 0 0 0
972 0 0 0
973 0 0 0
974 0 0 0
975 0 0 0
976 0 0 0
977 0 0 0
978 0 0 0
979 0 0 0
980 0 0 0
981 0 0 0
982 0 0 0
983 0 0 0
984 0 0 0
985 0 0 0
986 0 0 0
987 0 0 0
988 0 0 0
989 0 0 0
990 0 0 0
991 0 0 0
992 0 0 0
993 0 0 0
994 0 0 0
995 0 0 0
996 0 0 0
997 0 0 0
998 0 0 0
999 0 0 0
1000 0 0 0
1001 0 0 0
1002 0 0 0
1003 0 0 0
1004 0 0 0
1005 0 0 0
1006 0 0 0
1007 0 0 0
1008 0 0 0
1009 0 0 0
1010 0 0 0
1011 0 0 0
1012 0 0 0
1013 0 0 0
1014 0 0 0
1015 0 0 0
1016 0 0 0
1017 0 0 0
1018 0 0 0
1019 0 0 0
1020 0 0 0
1021 0 0 0
1022 0 0 0
1023 0 0 0
1024 0 0 0
1025 0 0 0
1026 0 0 0
1027 0 0 0
1028 0 0 0
1029 0 0 0
1030 0 0 0
1031 0 0 0
1032 0 0 0
1033 0 0 0
1034 0 0 0
1035 0 0 0
1036 0 0 0
1037 0 0 0
1038 0 0 0
1039 0 0 0
1040 0 0 0
1041 0 0 0
1042 0 0 0
1043 0 0 0
1044 0 0 0
1045 0 0 0
1046 0 0 0
1047 0 0 0
1048 0 0 0
1049 0 0 0
1050 0 0 0
1051 0 0 0
1052 0 0 0
1053 0 0 0
1054 0 0 0
1055 0 0 0
1056 0 0 0
1057 0 0 0
1058 0 0 0
1059 0 0 0
1060 0 0 0
1061 0 0 0
1062 0 0 0
1063 0 0 0
1064 0 0 0
1065 0 0 0
1066 0 0 0
1067 0 0 0
1068 0 0 0
1069 0 0 0
1070 0 0 0
1071 0 0 0
1072 0 0 0
1073 0 0 0
1074 0 0 0
1075 0 0 0
1076 0 0 0
1077 0 0 0
1078 0 0 0
1079 0 0 0
1080 0 0 0
1081 0 0 0
1082 0 0 0
1083 0 0 0
1084 0 0 0
1085 0 0 0
1086 0 0 0
1087 0 0 0
1088 0 0 0
1089 0 0 0
1090 0 0 0
1091 0 0 0
1092 0 0 0
1093 0 0 0
1094 0 0 0
1095 0 0 0
1096 0 0 0
1097 0 0 0
1098 0 0 0
1099 0 0 0
1100 0 0 0
1101 0 0 0
1102 0 0 0
1103 0 0 0
1104 0 0 0
1657 0 0 0
1658 0 0 0
1659 0 0 0
1660 0 0 0
1661 0 0 0
1662 0 0 0
1663 0 0 0
1664 0 0 0
1665 0 0 0
1666 0 0 0
1667 0 0 0
1668 0 0 0
1669 0 0 0
1670 0 0 0
1671 0 0 0
1672 0 0 0
1673 0 0 0
1674 0 0 0
1675 0 0 0
1676 0 0 0
1677 0 0 0
1678 0 0 0
1679 0 0 0
1680 0 0 0
1681 0 0 0
1682 0 0 0
1683 0 0 0
1684 0 0 0
1685 0 0 0
1686 0 0 0
1687 0 0 0
1688 0 0 0
1689 0 0 0
1690 0 0 0
1691 0 0 0
1692 0 0 0
1693 0 0 0
1694 0 0 0
1695 0 0 0
1696 0 0 0
1697 0 0 0
1698 0 0 0
1699 0 0 0
1700 0 0 0
1701 0 0 0
1702 0 0 0
1703 0 0 0
1704 0 0 0
1705 0 0 0
1706 0 0 0
1707 0 0 0
1708 0 0 0
1709 0 0 0
1710 0 0 0
1711 0 0 0
1712 0 0 0
1713 0 0 0
1714 0 0 0
1715 0 0 0
1716 0 0 0
1717 0 0 0
1718 0 0 0
1719 0 0 0
1720 0 0 0
1721 0 0 0
1722 0 0 0
1723 0 0 0
1724 0 0 0
1725 0 0 0
1726 0 0 0
1727 0 0 0
1728 0 0 0
1729 0 0 0
1730 0 0 0
1731 0 0 0
1732 0 0 0
1733 0 0 0
1734 0 0 0
1735 0 0 0
1736 0 0 0
1737 0 0 0
1738 0 0 0
1739 0 0 0
1740 0 0 0
1741 0 0 0
1742 0 0 0
1743 0 0 0
1744 0 0 0
1745 0 0 0
1746 0 0 0
1747 0 0 0
1748 0 0 0
1749 0 0 0
1750 0 0 0
1751 0 0 0
1752 0 0 0
1753 0 0 0
1754 0 0 0
1755 0 0 0
1756 0 0 0
1757 0 0 0
1758 0 0 0
1759 0 0 0
1760 0 0 0
1761 0 0 0
1762 0 0 0
1763 0 0 0
1764 0 0 0
1765 0 0 0
1766 0 0 0
1767 0 0 0
1768 0 0 0
1769 0 0 0
1770 0 0 0
1771 0 0 0
1772 0 0 0
1773 0 0 0
1774 0 0 0
1775 0 0 0
1776 0 0 0
1777 0 0 0
1778 0 0 0
1779 0 0 0
1780 0 0 0
1781 0 0 0
1782 0 0 0
1783 0 0 0
1784 0 0 0
1785 0 0 0
1786 0 0 0
1787 0 0 0
1788 0 0 0
1789 0 0 0
1790 0 0 0
1791 0 0 0
1792 0 0 0
1793 0 0 0
1794 0 0 0
1795 0 0 0
1796 0 0 0
1797 0 0 0
1798 0 0 0
1799 0 0 0
1800 0 0 0
1801 0 0 0
1802 0 0 0
1803 0 0 0
1804 0 0 0
1805 0 0 0
1806 0 0 0
1807 0 0 0
1808 0 0 0
1809 0 0 0
1810 0 0 0
1811 0 0 0
1812 0 0 0
1813 0 0 0
1814 0 0 0
1815 0 0 0
1816 0 0 0
1817 0 0 0
1818 0 0 0
1819 0 0 0
1820 0 0 0
1821 0 0 0
1822 0 0 0
1823 0 0 0
1824 0 0 0
1825 0 0 0
1826 0 0 0
1827 0 0 0
1828 0 0 0
1829 0 0 0
1830 0 0 0
1831 0 0 0
1832 0 0 0
1833 0 0 0
1834 0 0 0
1835 0 0 0
1836 0 0 0
1837 0 0 0
1838 0 0 0
1839 0 0 0
1840 0 0 0
2393 0 0 0
2394 0 0 0
2395 0 0 0
2396 0 0 0
2397 0 0 0
2398 0 0 0
2399 0 0 0
2400 0 0 0
2401 0 0 0
2402 0 0 0
2403 0 0 0
2404 0 0 0
2405 0 0 0
2406 0 0 0
2407 0 0 0
2408 0 0 0
2409 0 0 0
2410 0 0 0
2411 0 0 0
2412 0 0 0
2413 0 0 0
2414 0 0 0
2415 0 0 0
2416 0 0 0
2417 0 0 0
2418 0 0 0
2419 0 0 0
2420 0 0 0
2421 0 0 0
2422 0 0 0
2423 0 0 0
2424 0 0 0
2425 0 0 0
2426 0 0 0
2427 0 0 0
2428 0 0 0
2429 0 0 0
2430 0 0 0
2431 0 0 0
2432 0 0 0
2433 0 0 0
2434 0 0 0
2435 0 0 0
2436 0 0 0
2437 0 0 0
2438 0 0 0
2439 0 0 0
2440 0 0 0
2441 0 0 0
2442 0 0 0
2443 0 0 0
2444 0 0 0
2445 0 0 0
2446 0 0 0
2447 0 0 0
2448 0 0 0
2449 0 0 0
2450 0 0 0
2451 0 0 0
2452 0 0 0
2453 0 0 0
2454 0 0 0
2455 0 0 0
2456 0 0 0
2457 0 0 0
2458 0 0 0
2459 0 0 0
2460 0 0 0
2461 0 0 0
2462 0 0 0
2463 0 0 0
2464 0 0 0
2465 0 0 0
2466 0 0 0
2467 0 0 0
2468 0 0 0
2469 0 0 0
2470 0 0 0
2471 0 0 0
2472 0 0 0
2473 0 0 0
2474 0 0 0
2475 0 0 0
2476 0 0 0
2477 0 0 0
2478 0 0 0
2479 0 0 0
2480 0 0 0
2481 0 0 0
2482 0 0 0
2483 0 0 0
2484 0 0 0
2485 0 0 0
2486 0 0 0
2487 0 0 0
2488 0 0 0
2489 0 0 0
2490 0 0 0
2491 0 0 0
2492 0 0 0
2493 0 0 0
2494 0 0 0
2495 0 0 0
2496 0 0 0
2497 0 0 0
2498 0 0 0
2499 0 0 0
2500 0 0 0
2501 0 0 0
2502 0 0 0
2503 0 0 0
2504 0 0 0
2505 0 0 0
2506 0 0 0
2507 0 0 0
2508 0 0 0
2509 0 0 0
2510 0 0 0
2511 0 0 0
2512 0 0 0
2513 0 0 0
2514 0 0 0
2515 0 0 0
2516 0 0 0
2517 0 0 0
2518 0 0 0
2519 0 0 0
2520 0 0 0
2521 0 0 0
2522 0 0 0
2523 0 0 0
2524 0 0 0
2525 0 0 0
2526 0 0 0
2527 0 0 0
2528 0 0 0
2529 0 0 0
2530 0 0 0
2531 0 0 0
2532 0 0 0
2533 0 0 0
2534 0 0 0
2535 0 0 0
2536 0 0 0
2537 0 0 0
2538 0 0 0
2539 0 0 0
2540 0 0 0
2541 0 0 0
2542 0 0 0
2543 0 0 0
2544 0 0 0
2545 0 0 0
2546 0 0 0
2547 0 0 0
2548 0 0 0
2549 0 0 0
2550 0 0 0
2551 0 0 0
2552 0 0 0
2553 0 0 0
2554 0 0 0
2555 0 0 0
2556 0 0 0
2557 0 0 0
2558 0 0 0
2559 0 0 0
2560 0 0 0
2561 0 0 0
2562 0 0 0
2563 0 0 0
2564 0 0 0
2565 0 0 0
2566 0 0 0
2567 0 0 0
2568 0 0 0
2569 0 0 0
2570 0 0 0
2571 0 0 0
2572 0 0 0
2573 0 0 0
2574 0 0 0
2575 0 0 0
2576 0 0 0
3129 0 0 0
3130 0 0 0
3131 0 0 0
3132 0 0 0
3133 0 0 0
3134 0 0 0
3135 0 0 0
3136 0 0 0
3137 0 0 0
3138 0 0 0
3139 0 0 0
3140 0 0 0
3141 0 0 0
3142 0 0 0
3143 0 0 0
3144 0 0 0
3145 0 0 0
3146 0 0 0
3147 0 0 0
3148 0 0 0
3149 0 0 0
3150 0 0 0
3151 0 0 0
3152 0 0 0
3153 0 0 0
3154 0 0 0
3155 0 0 0
3156 0 0 0
3157 0 0 0
3158 0 0 0
3159 0 0 0
3160 0 0 0
3161 0 0 0
3162 0 0 0
3163 0 0 0
3164 0 0 0
3165 0 0 0
3166 0 0 0
3167 0 0 0
3168 0 0 0
3169 0 0 0
3170 0 0 0
3171 0 0 0
3172 0 0 0
3173 0 0 0
3174 0 0 0
3175 0 0 0
3176 0 0 0
3177 0 0 0
3178 0 0 0
3179 0 0 0
3180 0 0 0
3181 0 0 0
3182 0 0 0
3183 0 0 0
3184 0 0 0
3185 0 0 0
3186 0 0 0
3187 0 0 0
3188 0 0 0
3189 0 0 0
3190 0 0 0
3191 0 0 0
3192 0 0 0
3193 0 0 0
3194 0 0 0
3195 0 0 0
3196 0 0 0
3197 0 0 0
3198 0 0 0
3199 0 0 0
3200 0 0 0
3201 0 0 0
3202 0 0 0
3203 0 0 0
3204 0 0 0
3205 0 0 0
3206 0 0 0
3207 0 0 0
3208 0 0 0
3209 0 0 0
3210 0 0 0
3211 0 0 0
3212 0 0 0
3213 0 0 0
3214 0 0 0
3215 0 0 0
3216 0 0 0
3217 0 0 0
3218 0 0 0
3219 0 0 0
3220 0 0 0
3221 0 0 0
3222 0 0 0
3223 0 0 0
3224 0 0 0
3225 0 0 0
3226 0 0 0
3227 0 0 0
3228 0 0 0
3229 0 0 0
3230 0 0 0
3231 0 0 0
3232 0 0 0
3233 0 0 0
3234 0 0 0
3235 0 0 0
3236 0 0 0
3237 0 0 0
3238 0 0 0
3239 0 0 0
3240 0 0 0
3241 0 0 0
3242 0 0 0
3243 0 0 0
3244 0 0 0
3245 0 0 0
3246 0 0 0
3247 0 0 0
3248 0 0 0
3249 0 0 0
3250 0 0 0
3251 0 0 0
3252 0 0 0
3253 0 0 0
3254 0 0 0
3255 0 0 0
3256 0 0 0
3257 0 0 0
3258 0 0 0
3259 0 0 0
3260 0 0 0
3261 0 0 0
3262 0 0 0
3263 0 0 0
3264 0 0 0
3265 0 0 0
3266 0 0 0
3267 0 0 0
3268 0 0 0
3269 0 0 0
3270 0 0 0
3271 0 0 0
3272 0 0 0
3273 0 0 0
3274 0 0 0
3275 0 0 0
3276 0 0 0
3277 0 0 0
3278 0 0 0
3279 0 0 0
3280 0 0 0
3281 0 0 0
3282 0 0 0
3283 0 0 0
3284 0 0 0
3285 0 0 0
3286 0 0 0
3287 0 0 0
3288 0 0 0
3289 0 0 0
3290 0 0 0
3291 0 0 0
3292 0 0 0
3293 0 0 0
3294 0 0 0
3295 0 0 0
3296 0 0 0
3297 0 0 0
3298 0 0 0
3299 0 0 0
3300 0 0 0
3301 0 0 0
3302 0 0 0
3303 0 0 0
3304 0 0 0
3305 0 0 0
3306 0 0 0
3307 0 0 0
3308 0 0 0
3309 0 0 0
3310 0 0 0
3311 0 0 0
3312 0 0 0
3865 0 0 0
3866 0 0 0
3867 0 0 0
3868 0 0 0
3869 0 0 0
3870 0 0 0
3871 0 0 0
3872 0 0 0
3873 0 0 0
3874 0 0 0
3875 0 0 0
3876 0 0 0
3877 0 0 0
3878 0 0 0
3879 0 0 0
3880 0 0 0
3881 0 0 0
3882 0 0 0
3883 0 0 0
3884 0 0 0
3885 0 0 0
3886 0 0 0
3887 0 0 0
3888 0 0 0
3889 0 0 0
3890 0 0 0
3891 0 0 0
3892 0 0 0
3893 0 0 0
3894 0 0 0
3895 0 0 0
3896 0 0 0
3897 0 0 0
3898 0 0 0
3899 0 0 0
3900 0 0 0
3901 0 0 0
3902 0 0 0
3903 0 0 0
3904 0 0 0
3905 0 0 0
3906 0 0 0
3907 0 0 0
3908 0 0 0
3909 0 0 0
3910 0 0 0
3911 0 0 0
3912 0 0 0
3913 0 0 0
3914 0 0 0
3915 0 0 0
3916 0 0 0
3917 0 0 0
3918 0 0 0
3919 0 0 0
3920 0 0 0
3921 0 0 0
3922 0 0 0
3923 0 0 0
3924 0 0 0
3925 0 0 0
3926 0 0 0
3927 0 0 0
3928 0 0 0
3929 0 0 0
3930 0 0 0
3931 0 0 0
3932 0 0 0
3933 0 0 0
3934 0 0 0
3935 0 0 0
3936 0 0 0
3937 0 0 0
3938 0 0 0
3939 0 0 0
3940 0 0 0
3941 0 0 0
3942 0 0 0
3943 0 0 0
3944 0 0 0
3945 0 0 0
3946 0 0 0
3947 0 0 0
3948 0 0 0
3949 0 0 0
3950 0 0 0
3951 0 0 0
3952 0 0 0
3953 0 0 0
3954 0 0 0
3955 0 0 0
3956 0 0 0
3957 0 0 0
3958 0 0 0
3959 0 0 0
3960 0 0 0
3961 0 0 0
3962 0 0 0
3963 0 0 0
3964 0 0 0
3965 0 0 0
3966 0 0 0
3967 0 0 0
3968 0 0 0
3969 0 0 0
3970 0 0 0
3971 0 0 0
3972 0 0 0
3973 0 0 0
3974 0 0 0
3975 0 0 0
3976 0 0 0
3977 0 0 0
3978 0 0 0
3979 0 0 0
3980 0 0 0
3981 0 0 0
3982 0 0 0
3983 0 0 0
3984 0 0 0
3985 0 0 0
3986 0 0 0
3987 0 0 0
3988 0 0 0
3989 0 0 0
3990 0 0 0
3991 0 0 0
3992 0 0 0
3993 0 0 0
3994 0 0 0
3995 0 0 0
3996 0 0 0
3997 0 0 0
3998 0 0 0
3999 0 0 0
4000 0 0 0
4001 0 0 0
4002 0 0 0
4003 0 0 0
4004 0 0 0
4005 0 0 0
4006 0 0 0
4007 0 0 0
4008 0 0 0
4009 0 0 0
4010 0 0 0
4011 0 0 0
4012 0 0 0
4013 0 0 0
4014 0 0 0
4015 0 0 0
4016 0 0 0
4017 0 0 0
4018 0 0 0
4019 0 0 0
4020 0 0 0
4021 0 0 0
4022 0 0 0
4023 0 0 0
4024 0 0 0
4025 0 0 0
4026 0 0 0
4027 0 0 0
4028 0 0 0
4029 0 0 0
4030 0 0 0
4031 0 0 0
4032 0 0 0
4033 0 0 0
4034 0 0 0
4035 0 0 0
4036 0 0 0
4037 0 0 0
4038 0 0 0
4039 0 0 0
4040 0 0 0
4041 0 0 0
4042 0 0 0
4043 0 0 0
4044 0 0 0
4045 0 0 0
4046 0 0 0
4047 0 0 0
4048 0 0 0
4601 0 0 0
4602 0 0 0
4603 0 0 0
4604 0 0 0
4605 0 0 0
4606 0 0 0
4607 0 0 0
4608 0 0 0
4609 0 0 0
4610 0 0 0
4611 0 0 0
4612 0 0 0
4613 0 0 0
4614 0 0 0
4615 0 0 0
4616 0 0 0
4617 0 0 0
4618 0 0 0
4619 0 0 0
4620 0 0 0
4621 0 0 0
4622 0 0 0
4623 0 0 0
4624 0 0 0
4625 0 0 0
4626 0 0 0
4627 0 0 0
4628 0 0 0
4629 0 0 0
4630 0 0 0
4631 0 0 0
4632 0 0 0
4633 0 0 0
4634 0 0 0
4635 0 0 0
4636 0 0 0
4637 0 0 0
4638 0 0 0
4639 0 0 0
4640 0 0 0
4641 0 0 0
4642 0 0 0
4643 0 0 0
4644 0 0 0
4645 0 0 0
4646 0 0 0
4647 0 0 0
4648 0 0 0
4649 0 0 0
4650 0 0 0
4651 0 0 0
4652 0 0 0
4653 0 0 0
4654 0 0 0
4655 0 0 0
4656 0 0 0
4657 0 0 0
4658 0 0 0
4659 0 0 0
4660 0 0 0
4661 0 0 0
4662 0 0 0
4663 0 0 0
4664 0 0 0
4665 0 0 0
4666 0 0 0
4667 0 0 0
4668 0 0 0
4669 0 0 0
4670 0 0 0
4671 0 0 0
4672 0 0 0
4673 0 0 0
4674 0 0 0
4675 0 0 0
4676 0 0 0
4677 0 0 0
4678 0 0 0
4679 0 0 0
4680 0 0 0
4681 0 0 0
4682 0 0 0
4683 0 0 0
4684 0 0 0
4685 0 0 0
4686 0 0 0
4687 0 0 0
4688 0 0 0
4689 0 0 0
4690 0 0 0
4691 0 0 0
4692 0 0 0
4693 0 0 0
4694 0 0 0
4695 0 0 0
4696 0 0 0
4697 0 0 0
4698 0 0 0
4699 0 0 0
4700 0 0 0
4701 0 0 0
4702 0 0 0
4703 0 0 0
4704 0 0 0
4705 0 0 0
4706 0 0 0
4707 0 0 0
4708 0 0 0
4709 0 0 0
4710 0 0 0
4711 0 0 0
4712 0 0 0
4713 0 0 0
4714 0 0 0
4715 0 0 0
4716 0 0 0
4717 0 0 0
4718 0 0 0
4719 0 0 0
4720 0 0 0
4721 0 0 0
4722 0 0 0
4723 0 0 0
4724 0 0 0
4725 0 0 0
4726 0 0 0
4727 0 0 0
4728 0 0 0
4729 0 0 0
4730 0 0 0
4731 0 0 0
4732 0 0 0
4733 0 0 0
4734 0 0 0
4735 0 0 0
4736 0 0 0
4737 0 0 0
4738 0 0 0
4739 0 0 0
4740 0 0 0
4741 0 0 0
4742 0 0 0
4743 0 0 0
4744 0 0 0
4745 0 0 0
4746 0 0 0
4747 0 0 0
4748 0 0 0
4749 0 0 0
4750 0 0 0
4751 0 0 0
4752 0 0 0
4753 0 0 0
4754 0 0 0
4755 0 0 0
4756 0 0 0
4757 0 0 0
4758 0 0 0
4759 0 0 0
4760 0 0 0
4761 0 0 0
4762 0 0 0
4763 0 0 0
4764 0 0 0
4765 0 0 0
4766 0 0 0
4767 0 0 0
4768 0 0 0
4769 0 0 0
4770 0 0 0
4771 0 0 0
4772 0 0 0
4773 0 0 0
4774 0 0 0
4775 0 0 0
4776 0 0 0
4777 0 0 0
4778 0 0 0
4779 0 0 0
4780 0 0 0
4781 0 0 0
4782 0 0 0
4783 0 0 0
4784 0 0 0
5337 0 0 0
5338 0 0 0
5339 0 0 0
5340 0 0 0
5341 0 0 0
5342 0 0 0
5343 0 0 0
5344 0 0 0
5345 0 0 0
5346 0 0 0
5347 0 0 0
5348 0 0 0
5349 0 0 0
5350 0 0 0
5351 0 0 0
5352 0 0 0
5353 0 0 0
5354 0 0 0
5355 0 0 0
5356 0 0 0
5357 0 0 0
5358 0 0 0
5359 0 0 0
5360 0 0 0
5361 0 0 0
5362 0 0 0
5363 0 0 0
5364 0 0 0
5365 0 0 0
5366 0 0 0
5367 0 0 0
5368 0 0 0
5369 0 0 0
5370 0 0 0
5371 0 0 0
5372 0 0 0
5373 0 0 0
5374 0 0 0
5375 0 0 0
5376 0 0 0
5377 0 0 0
5378 0 0 0
5379 0 0 0
5380 0 0 0
5381 0 0 0
5382 0 0 0
5383 0 0 0
5384 0 0 0
5385 0 0 0
5386 0 0 0
5387 0 0 0
5388 0 0 0
5389 0 0 0
5390 0 0 0
5391 0 0 0
5392 0 0 0
5393 0 0 0
5394 0 0 0
5395 0 0 0
5396 0 0 0
5397 0 0 0
5398 0 0 0
5399 0 0 0
5400 0 0 0
5401 0 0 0
5402 0 0 0
5403 0 0 0
5404 0 0 0
5405 0 0 0
5406 0 0 0
5407 0 0 0
5408 0 0 0
5409 0 0 0
5410 0 0 0
5411 0 0 0
5412 0 0 0
5413 0 0 0
5414 0 0 0
5415 0 0 0
5416 0 0 0
5417 0 0 0
5418 0 0 0
5419 0 0 0
5420 0 0 0
5421 0 0 0
5422 0 0 0
5423 0 0 0
5424 0 0 0
5425 0 0 0
5426 0 0 0
5427 0 0 0
5428 0 0 0
5429 0 0 0
5430 0 0 0
5431 0 0 0
5432 0 0 0
5433 0 0 0
5434 0 0 0
5435 0 0 0
5436 0 0 0
5437 0 0 0
5438 0 0 0
5439 0 0 0
5440 0 0 0
5441 0 0 0
5442 0 0 0
5443 0 0 0
5444 0 0 0
5445 0 0 0
5446 0 0 0
5447 0 0 0
5448 0 0 0
5449 0 0 0
5450 0 0 0
5451 0 0 0
5452 0 0 0
5453 0 0 0
5454 0 0 0
5455 0 0 0
5456 0 0 0
5457 0 0 0
5458 0 0 0
5459 0 0 0
5460 0 0 0
5461 0 0 0
5462 0 0 0
5463 0 0 0
5464 0 0 0
5465 0 0 0
5466 0 0 0
5467 0 0 0
5468 0 0 0
5469 0 0 0
5470 0 0 0
5471 0 0 0
5472 0 0 0
5473 0 0 0
5474 0 0 0
5475 0 0 0
5476 0 0 0
5477 0 0 0
5478 0 0 0
5479 0 0 0
5480 0 0 0
5481 0 0 0
5482 0 0 0
5483 0 0 0
5484 0 0 0
5485 0 0 0
5486 0 0 0
5487 0 0 0
5488 0 0 0
5489 0 0 0
5490 0 0 0
5491 0 0 0
5492 0 0 0
5493 0 0 0
5494 0 0 0
5495 0 0 0
5496 0 0 0
5497 0 0 0
5498 0 0 0
5499 0 0 0
5500 0 0 0
5501 0 0 0
5502 0 0 0
5503 0 0 0
5504 0 0 0
5505 0 0 0
5506 0 0 0
5507 0 0 0
5508 0 0 0
5509 0 0 0
5510 0 0 0
5511 0 0 0
5512 0 0 0
5513 0 0 0
5514 0 0 0
5515 0 0 0
5516 0 0 0
5517 0 0 0
5518 0 0 0
5519 0 0 0
5520 0 0 0
6073 0 0 0
6074 0 0 0
6075 0 0 0
6076 0 0 0
6077 0 0 0
6078 0 0 0
6079 0 0 0
6080 0 0 0
6081 0 0 0
6082 0 0 0
6083 0 0 0
6084 0 0 0
6085 0 0 0
6086 0 0 0
6087 0 0 0
6088 0 0 0
6089 0 0 0
6090 0 0 0
6091 0 0 0
6092 0 0 0
6093 0 0 0
6094 0 0 0
6095 0 0 0
6096 0 0 0
6097 0 0 0
6098 0 0 0
6099 0 0 0
6100 0 0 0
6101 0 0 0
6102 0 0 0
6103 0 0 0
6104 0 0 0
6105 0 0 0
6106 0 0 0
6107 0 0 0
6108 0 0 0
6109 0 0 0
6110 0 0 0
6111 0 0 0
6112 0 0 0
6113 0 0 0
6114 0 0 0
6115 0 0 0
6116 0 0 0
6117 0 0 0
6118 0 0 0
6119 0 0 0
6120 0 0 0
6121 0 0 0
6122 0 0 0
6123 0 0 0
6124 0 0 0
6125 0 0 0
6126 0 0 0
6127 0 0 0
6128 0 0 0
6129 0 0 0
6130 0 0 0
6131 0 0 0
6132 0 0 0
6133 0 0 0
6134 0 0 0
6135 0 0 0
6136 0 0 0
6137 0 0 0
6138 0 0 0
6139 0 0 0
6140 0 0 0
6141 0 0 0
6142 0 0 0
6143 0 0 0
6144 0 0 0
6145 0 0 0
6146 0 0 0
6147 0 0 0
6148 0 0 0
6149 0 0 0
6150 0 0 0
6151 0 0 0
6152 0 0 0
6153 0 0 0
6154 0 0 0
6155 0 0 0
6156 0 0 0
6157 0 0 0
6158 0 0 0
6159 0 0 0
6160 0 0 0
6161 0 0 0
6162 0 0 0
6163 0 0 0
6164 0 0 0
6165 0 0 0
6166 0 0 0
6167 0 0 0
6168 0 0 0
6169 0 0 0
6170 0 0 0
6171 0 0 0
6172 0 0 0
6173 0 0 0
6174 0 0 0
6175 0 0 0
6176 0 0 0
6177 0 0 0
6178 0 0 0
6179 0 0 0
6180 0 0 0
6181 0 0 0
6182 0 0 0
6183 0 0 0
6184 0 0 0
6185 0 0 0
6186 0 0 0
6187 0 0 0
6188 0 0 0
6189 0 0 0
6190 0 0 0
6191 0 0 0
6192 0 0 0
6193 0 0 0
6194 0 0 0
6195 0 0 0
6196 0 0 0
6197 0 0 0
6198 0 0 0
6199 0 0 0
6200 0 0 0
6201 0 0 0
6202 0 0 0
6203 0 0 0
6204 0 0 0
6205 0 0 0
6206 0 0 0
6207 0 0 0
6208 0 0 0
6209 0 0 0
6210 0 0 0
6211 0 0 0
6212 0 0 0
6213 0 0 0
6214 0 0 0
6215 0 0 0
6216 0 0 0
6217 0 0 0
6218 0 0 0
6219 0 0 0
6220 0 0 0
6221 0 0 0
6222 0 0 0
6223 0 0 0
6224 0 0 0
6225 0 0 0
6226 0 0 0
6227 0 0 0
6228 0 0 0
6229 0 0 0
6230 0 0 0
6231 0 0 0
6232 0 0 0
6233 0 0 0
6234 0 0 0
6235 0 0 0
6236 0 0 0
6237 0 0 0
6238 0 0 0
6239 0 0 0
6240 0 0 0
6241 0 0 0
6242 0 0 0
6243 0 0 0
6244 0 0 0
6245 0 0 0
6246 0 0 0
6247 0 0 0
6248 0 0 0
6249 0 0 0
6250 0 0 0
6251 0 0 0
6252 0 0 0
6253 0 0 0
6254 0 0 0
6255 0 0 0
6256 0 0 0
6809 0 0 0
6810 0 0 0
6811 0 0 0
6812 0 0 0
6813 0 0 0
6814 0 0 0
6815 0 0 0
6816 0 0 0
6817 0 0 0
6818 0 0 0
6819 0 0 0
6820 0 0 0
6821 0 0 0
6822 0 0 0
6823 0 0 0
6824 0 0 0
6825 0 0 0
6826 0 0 0
6827 0 0 0
6828 0 0 0
6829 0 0 0
6830 0 0 0
6831 0 0 0
6832 0 0 0
6833 0 0 0
6834 0 0 0
6835 0 0 0
6836 0 0 0
6837 0 0 0
6838 0 0 0
6839 0 0 0
6840 0 0 0
6841 0 0 0
6842 0 0 0
6843 0 0 0
6844 0 0 0
6845 0 0 0
6846 0 0 0
6847 0 0 0
6848 0 0 0
6849 0 0 0
6850 0 0 0
6851 0 0 0
6852 0 0 0
6853 0 0 0
6854 0 0 0
6855 0 0 0
6856 0 0 0
6857 0 0 0
6858 0 0 0
6859 0 0 0
6860 0 0 0
6861 0 0 0
6862 0 0 0
6863 0 0 0
6864 0 0 0
6865 0 0 0
6866 0 0 0
6867 0 0 0
6868 0 0 0
6869 0 0 0
6870 0 0 0
6871 0 0 0
6872 0 0 0
6873 0 0 0
6874 0 0 0
6875 0 0 0
6876 0 0 0
6877 0 0 0
6878 0 0 0
6879 0 0 0
6880 0 0 0
6881 0 0 0
6882 0 0 0
6883 0 0 0
6884 0 0 0
6885 0 0 0
6886 0 0 0
6887 0 0 0
6888 0 0 0
6889 0 0 0
6890 0 0 0
6891 0 0 0
6892 0 0 0
6893 0 0 0
6894 0 0 0
6895 0 0 0
6896 0 0 0
6897 0 0 0
6898 0 0 0
6899 0 0 0
6900 0 0 0
6901 0 0 0
6902 0 0 0
6903 0 0 0
6904 0 0 0
6905 0 0 0
6906 0 0 0
6907 0 0 0
6908 0 0 0
6909 0 0 0
6910 0 0 0
6911 0 0 0
6912 0 0 0
6913 0 0 0
6914 0 0 0
6915 0 0 0
6916 0 0 0
6917 0 0 0
6918 0 0 0
6919 0 0 0
6920 0 0 0
6921 0 0 0
6922 0 0 0
6923 0 0 0
6924 0 0 0
6925 0 0 0
6926 0 0 0
6927 0 0 0
6928 0 0 0
6929 0 0 0
6930 0 0 0
6931 0 0 0
6932 0 0 0
6933 0 0 0
6934 0 0 0
6935 0 0 0
6936 0 0 0
6937 0 0 0
6938 0 0 0
6939 0 0 0
6940 0 0 0
6941 0 0 0
6942 0 0 0
6943 0 0 0
6944 0 0 0
6945 0 0 0
6946 0 0 0
6947 0 0 0
6948 0 0 0
6949 0 0 0
6950 0 0 0
6951 0 0 0
6952 0 0 0
6953 0 0 0
6954 0 0 0
6955 0 0 0
6956 0 0 0
6957 0 0 0
6958 0 0 0
6959 0 0 0
6960 0 0 0
6961 0 0 0
6962 0 0 0
6963 0 0 0
6964 0 0 0
6965 0 0 0
6966 0 0 0
6967 0 0 0
6968 0 0 0
6969 0 0 0
6970 0 0 0
6971 0 0 0
6972 0 0 0
6973 0 0 0
6974 0 0 0
6975 0 0 0
6976 0 0 0
6977 0 0 0
6978 0 0 0
6979 0 0 0
6980 0 0 0
6981 0 0 0
6982 0 0 0
6983 0 0 0
6984 0 0 0
6985 0 0 0
6986 0 0 0
6987 0 0 0
6988 0 0 0
6989 0 0 0
6990 0 0 0
6991 0 0 0
6992 0 0 0
7545 0 0 0
7546 0 0 0
7547 0 0 0
7548 0 0 0
7549 0 0 0
7550 0 0 0
7551 0 0 0
7552 0 0 0
7553 0 0 0
7554 0 0 0
7555 0 0 0
7556 0 0 0
7557 0 0 0
7558 0 0 0
7559 0 0 0
7560 0 0 0
7561 0 0 0
7562 0 0 0
7563 0 0 0
7564 0 0 0
7565 0 0 0
7566 0 0 0
7567 0 0 0
7568 0 0 0
7569 0 0 0
7570 0 0 0
7571 0 0 0
7572 0 0 0
7573 0 0 0
7574 0 0 0
7575 0 0 0
7576 0 0 0
7577 0 0 0
7578 0 0 0
7579 0 0 0
7580 0 0 0
7581 0 0 0
7582 0 0 0
7583 0 0 0
7584 0 0 0
7585 0 0 0
7586 0 0 0
7587 0 0 0
7588 0 0 0
7589 0 0 0
7590 0 0 0
7591 0 0 0
7592 0 0 0
7593 0 0 0
7594 0 0 0
7595 0 0 0
7596 0 0 0
7597 0 0 0
7598 0 0 0
7599 0 0 0
7600 0 0 0
7601 0 0 0
7602 0 0 0
7603 0 0 0
7604 0 0 0
7605 0 0 0
7606 0 0 0
7607 0 0 0
7608 0 0 0
7609 0 0 0
7610 0 0 0
7611 0 0 0
7612 0 0 0
7613 0 0 0
7614 0 0 0
7615 0 0 0
7616 0 0 0
7617 0 0 0
7618 0 0 0
7619 0 0 0
7620 0 0 0
7621 0 0 0
7622 0 0 0
7623 0 0 0
7624 0 0 0
7625 0 0 0
7626 0 0 0
7627 0 0 0
7628 0 0 0
7629 0 0 0
7630 0 0 0
7631 0 0 0
7632 0 0 0
7633 0 0 0
7634 0 0 0
7635 0 0 0
7636 0 0 0
7637 0 0 0
7638 0 0 0
7639 0 0 0
7640 0 0 0
7641 0 0 0
7642 0 0 0
7643 0 0 0
7644 0 0 0
7645 0 0 0
7646 0 0 0
7647 0 0 0
7648 0 0 0
7649 0 0 0
7650 0 0 0
7651 0 0 0
7652 0 0 0
7653 0 0 0
7654 0 0 0
7655 0 0 0
7656 0 0 0
7657 0 0 0
7658 0 0 0
7659 0 0 0
7660 0 0 0
7661 0 0 0
7662 0 0 0
7663 0 0 0
7664 0 0 0
7665 0 0 0
7666 0 0 0
7667 0 0 0
7668 0 0 0
7669 0 0 0
7670 0 0 0
7671 0 0 0
7672 0 0 0
7673 0 0 0
7674 0 0 0
7675 0 0 0
7676 0 0 0
7677 0 0 0
7678 0 0 0
7679 0 0 0
7680 0 0 0
7681 0 0 0
7682 0 0 0
7683 0 0 0
7684 0 0 0
7685 0 0 0
7686 0 0 0
7687 0 0 0
7688 0 0 0
7689 0 0 0
7690 0 0 0
7691 0 0 0
7692 0 0 0
7693 0 0 0
7694 0 0 0
7695 0 0 0
7696 0 0 0
7697 0 0 0
7698 0 0 0
7699 0 0 0
7700 0 0 0
7701 0 0 0
7702 0 0 0
7703 0 0 0
7704 0 0 0
7705 0 0 0
7706 0 0 0
7707 0 0 0
7708 0 0 0
7709 0 0 0
7710 0 0 0
7711 0 0 0
7712 0 0 0
7713 0 0 0
7714 0 0 0
7715 0 0 0
7716 0 0 0
7717 0 0 0
7718 0 0 0
7719 0 0 0
7720 0 0 0
7721 0 0 0
7722 0 0 0
7723 0 0 0
7724 0 0 0
7725 0 0 0
7726 0 0 0
7727 0 0 0
7728 0 0 0
369 0 0 0
370 0 0 0
371 0 0 0
372 0 0 0
373 0 0 0
374 0 0 0
375 0 0 0
376 0 0 0
377 0 0 0
378 0 0 0
379 0 0 0
380 0 0 0
381 0 0 0
382 0 0 0
383 0 0 0
384 0 0 0
385 0 0 0
386 0 0 0
387 0 0 0
388 0 0 0
389 0 0 0
390 0 0 0
391 0 0 0
392 0 0 0
393 0 0 0
394 0 0 0
395 0 0 0
396 0 0 0
397 0 0 0
398 0 0 0
399 0 0 0
400 0 0 0
401 0 0 0
402 0 0 0
403 0 0 0
404 0 0 0
405 0 0 0
406 0 0 0
407 0 0 0
408 0 0 0
409 0 0 0
410 0 0 0
411 0 0 0
412 0 0 0
413 0 0 0
414 0 0 0
415 0 0 0
416 0 0 0
417 0 0 0
418 0 0 0
419 0 0 0
420 0 0 0
421 0 0 0
422 0 0 0
423 0 0 0
424 0 0 0
425 0 0 0
426 0 0 0
427 0 0 0
428 0 0 0
429 0 0 0
430 0 0 0
431 0 0 0
432 0 0 0
433 0 0 0
434 0 0 0
435 0 0 0
436 0 0 0
437 0 0 0
438 0 0 0
439 0 0 0
440 0 0 0
441 0 0 0
442 0 0 0
443 0 0 0
444 0 0 0
445 0 0 0
446 0 0 0
447 0 0 0
448 0 0 0
449 0 0 0
450 0 0 0
451 0 0 0
452 0 0 0
453 0 0 0
454 0 0 0
455 0 0 0
456 0 0 0
457 0 0 0
458 0 0 0
459 0 0 0
460 0 0 0
461 0 0 0
462 0 0 0
463 0 0 0
464 0 0 0
465 0 0 0
466 0 0 0
467 0 0 0
468 0 0 0
469 0 0 0
470 0 0 0
471 0 0 0
472 0 0 0
473 0 0 0
474 0 0 0
475 0 0 0
476 0 0 0
477 0 0 0
478 0 0 0
479 0 0 0
480 0 0 0
481 0 0 0
482 0 0 0
483 0 0 0
484 0 0 0
485 0 0 0
486 0 0 0
487 0 0 0
488 0 0 0
489 0 0 0
490 0 0 0
491 0 0 0
492 0 0 0
493 0 0 0
494 0 0 0
495 0 0 0
496 0 0 0
497 0 0 0
498 0 0 0
499 0 0 0
500 0 0 0
501 0 0 0
502 0 0 0
503 0 0 0
504 0 0 0
505 0 0 0
506 0 0 0
507 0 0 0
508 0 0 0
509 0 0 0
510 0 0 0
511 0 0 0
512 0 0 0
513 0 0 0
514 0 0 0
515 0 0 0
516 0 0 0
517 0 0 0
518 0 0 0
519 0 0 0
520 0 0 0
521 0 0 0
522 0 0 0
523 0 0 0
524 0 0 0
525 0 0 0
526 0 0 0
527 0 0 0
528 0 0 0
529 0 0 0
530 0 0 0
531 0 0 0
532 0 0 0
533 0 0 0
534 0 0 0
535 0 0 0
536 0 0 0
537 0 0 0
538 0 0 0
539 0 0 0
540 0 0 0
541 0 0 0
542 0 0 0
543 0 0 0
544 0 0 0
545 0 0 0
546 0 0 0
547 0 0 0
548 0 0 0
549 0 0 0
550 0 0 0
551 0 0 0
552 0 0 0
1105 0 0 0
1106 0 0 0
1107 0 0 0
1108 0 0 0
1109 0 0 0
1110 0 0 0
1111 0 0 0
1112 0 0 0
1113 0 0 0
1114 0 0 0
1115 0 0 0
1116 0 0 0
1117 0 0 0
1118 0 0 0
1119 0 0 0
1120 0 0 0
1121 0 0 0
1122 0 0 0
1123 0 0 0
1124 0 0 0
1125 0 0 0
1126 0 0 0
1127 0 0 0
1128 0 0 0
1129 0 0 0
1130 0 0 0
1131 0 0 0
1132 0 0 0
1133 0 0 0
1134 0 0 0
1135 0 0 0
1136 0 0 0
1137 0 0 0
1138 0 0 0
1139 0 0 0
1140 0 0 0
1141 0 0 0
1142 0 0 0
1143 0 0 0
1144 0 0 0
1145 0 0 0
1146 0 0 0
1147 0 0 0
1148 0 0 0
1149 0 0 0
1150 0 0 0
1151 0 0 0
1152 0 0 0
1153 0 0 0
1154 0 0 0
1155 0 0 0
1156 0 0 0
1157 0 0 0
1158 0 0 0
1159 0 0 0
1160 0 0 0
1161 0 0 0
1162 0 0 0
1163 0 0 0
1164 0 0 0
1165 0 0 0
1166 0 0 0
1167 0 0 0
1168 0 0 0
1169 0 0 0
1170 0 0 0
1171 0 0 0
1172 0 0 0
1173 0 0 0
1174 0 0 0
1175 0 0 0
1176 0 0 0
1177 0 0 0
1178 0 0 0
1179 0 0 0
1180 0 0 0
1181 0 0 0
1182 0 0 0
1183 0 0 0
1184 0 0 0
1185 0 0 0
1186 0 0 0
1187 0 0 0
1188 0 0 0
1189 0 0 0
1190 0 0 0
1191 0 0 0
1192 0 0 0
1193 0 0 0
1194 0 0 0
1195 0 0 0
1196 0 0 0
1197 0 0 0
1198 0 0 0
1199 0 0 0
1200 0 0 0
1201 0 0 0
1202 0 0 0
1203 0 0 0
1204 0 0 0
1205 0 0 0
1206 0 0 0
1207 0 0 0
1208 0 0 0
1209 0 0 0
1210 0 0 0
1211 0 0 0
1212 0 0 0
1213 0 0 0
1214 0 0 0
1215 0 0 0
1216 0 0 0
1217 0 0 0
1218 0 0 0
1219 0 0 0
1220 0 0 0
1221 0 0 0
1222 0 0 0
1223 0 0 0
1224 0 0 0
1225 0 0 0
1226 0 0 0
1227 0 0 0
1228 0 0 0
1229 0 0 0
1230 0 0 0
1231 0 0 0
1232 0 0 0
1233 0 0 0
1234 0 0 0
1235 0 0 0
1236 0 0 0
1237 0 0 0
1238 0 0 0
1239 0 0 0
1240 0 0 0
1241 0 0 0
1242 0 0 0
1243 0 0 0
1244 0 0 0
1245 0 0 0
1246 0 0 0
1247 0 0 0
1248 0 0 0
1249 0 0 0
1250 0 0 0
1251 0 0 0
1252 0 0 0
1253 0 0 0
1254 0 0 0
1255 0 0 0
1256 0 0 0
1257 0 0 0
1258 0 0 0
1259 0 0 0
1260 0 0 0
1261 0 0 0
1262 0 0 0
1263 0 0 0
1264 0 0 0
1265 0 0 0
1266 0 0 0
1267 0 0 0
1268 0 0 0
1269 0 0 0
1270 0 0 0
1271 0 0 0
1272 0 0 0
1273 0 0 0
1274 0 0 0
1275 0 0 0
1276 0 0 0
1277 0 0 0
1278 0 0 0
1279 0 0 0
1280 0 0 0
1281 0 0 0
1282 0 0 0
1283 0 0 0
1284 0 0 0
1285 0 0 0
1286 0 0 0
1287 0 0 0
1288 0 0 0
1841 0 0 0
1842 0 0 0
1843 0 0 0
1844 0 0 0
1845 0 0 0
1846 0 0 0
1847 0 0 0
1848 0 0 0
1849 0 0 0
1850 0 0 0
1851 0 0 0
1852 0 0 0
1853 0 0 0
1854 0 0 0
1855 0 0 0
1856 0 0 0
1857 0 0 0
1858 0 0 0
1859 0 0 0
1860 0 0 0
1861 0 0 0
1862 0 0 0
1863 0 0 0
1864 0 0 0
1865 0 0 0
1866 0 0 0
1867 0 0 0
1868 0 0 0
1869 0 0 0
1870 0 0 0
1871 0 0 0
1872 0 0 0
1873 0 0 0
1874 0 0 0
1875 0 0 0
1876 0 0 0
1877 0 0 0
1878 0 0 0
1879 0 0 0
1880 0 0 0
1881 0 0 0
1882 0 0 0
1883 0 0 0
1884 0 0 0
1885 0 0 0
1886 0 0 0
1887 0 0 0
1888 0 0 0
1889 0 0 0
1890 0 0 0
1891 0 0 0
1892 0 0 0
1893 0 0 0
1894 0 0 0
1895 0 0 0
1896 0 0 0
1897 0 0 0
1898 0 0 0
1899 0 0 0
1900 0 0 0
1901 0 0 0
1902 0 0 0
1903 0 0 0
1904 0 0 0
1905 0 0 0
1906 0 0 0
1907 0 0 0
1908 0 0 0
1909 0 0 0
1910 0 0 0
1911 0 0 0
1912 0 0 0
1913 0 0 0
1914 0 0 0
1915 0 0 0
1916 0 0 0
1917 0 0 0
1918 0 0 0
1919 0 0 0
1920 0 0 0
1921 0 0 0
1922 0 0 0
1923 0 0 0
1924 0 0 0
1925 0 0 0
1926 0 0 0
1927 0 0 0
1928 0 0 0
1929 0 0 0
1930 0 0 0
1931 0 0 0
1932 0 0 0
1933 0 0 0
1934 0 0 0
1935 0 0 0
1936 0 0 0
1937 0 0 0
1938 0 0 0
1939 0 0 0
1940 0 0 0
1941 0 0 0
1942 0 0 0
1943 0 0 0
1944 0 0 0
1945 0 0 0
1946 0 0 0
1947 0 0 0
1948 0 0 0
1949 0 0 0
1950 0 0 0
1951 0 0 0
1952 0 0 0
1953 0 0 0
1954 0 0 0
1955 0 0 0
1956 0 0 0
1957 0 0 0
1958 0 0 0
1959 0 0 0
1960 0 0 0
1961 0 0 0
1962 0 0 0
1963 0 0 0
1964 0 0 0
1965 0 0 0
1966 0 0 0
1967 0 0 0
1968 0 0 0
1969 0 0 0
1970 0 0 0
1971 0 0 0
1972 0 0 0
1973 0 0 0
1974 0 0 0
1975 0 0 0
1976 0 0 0
1977 0 0 0
1978 0 0 0
1979 0 0 0
1980 0 0 0
1981 0 0 0
1982 0 0 0
1983 0 0 0
1984 0 0 0
1985 0 0 0
1986 0 0 0
1987 0 0 0
1988 0 0 0
1989 0 0 0
1990 0 0 0
1991 0 0 0
1992 0 0 0
1993 0 0 0
1994 0 0 0
1995 0 0 0
1996 0 0 0
1997 0 0 0
1998 0 0 0
1999 0 0 0
2000 0 0 0
2001 0 0 0
2002 0 0 0
2003 0 0 0
2004 0 0 0
2005 0 0 0
2006 0 0 0
2007 0 0 0
2008 0 0 0
2009 0 0 0
2010 0 0 0
2011 0 0 0
2012 0 0 0
2013 0 0 0
2014 0 0 0
2015 0 0 0
2016 0 0 0
2017 0 0 0
2018 0 0 0
2019 0 0 0
2020 0 0 0
2021 0 0 0
2022 0 0 0
2023 0 0 0
2024 0 0 0
2577 0 0 0
2578 0 0 0
2579 0 0 0
2580 0 0 0
2581 0 0 0
2582 0 0 0
2583 0 0 0
2584 0 0 0
2585 0 0 0
2586 0 0 0
2587 0 0 0
2588 0 0 0
2589 0 0 0
2590 0 0 0
2591 0 0 0
2592 0 0 0
2593 0 0 0
2594 0 0 0
2595 0 0 0
2596 0 0 0
2597 0 0 0
2598 0 0 0
2599 0 0 0
2600 0 0 0
2601 0 0 0
2602 0 0 0
2603 0 0 0
2604 0 0 0
2605 0 0 0
2606 0 0 0
2607 0 0 0
2608 0 0 0
2609 0 0 0
2610 0 0 0
2611 0 0 0
2612 0 0 0
2613 0 0 0
2614 0 0 0
2615 0 0 0
2616 0 0 0
2617 0 0 0
2618 0 0 0
2619 0 0 0
2620 0 0 0
2621 0 0 0
2622 0 0 0
2623 0 0 0
2624 0 0 0
2625 0 0 0
2626 0 0 0
2627 0 0 0
2628 0 0 0
2629 0 0 0
2630 0 0 0
2631 0 0 0
2632 0 0 0
2633 0 0 0
2634 0 0 0
2635 0 0 0
2636 0 0 0
2637 0 0 0
2638 0 0 0
2639 0 0 0
2640 0 0 0
2641 0 0 0
2642 0 0 0
2643 0 0 0
2644 0 0 0
2645 0 0 0
2646 0 0 0
2647 0 0 0
2648 0 0 0
2649 0 0 0
2650 0 0 0
2651 0 0 0
2652 0 0 0
2653 0 0 0
2654 0 0 0
2655 0 0 0
2656 0 0 0
2657 0 0 0
2658 0 0 0
2659 0 0 0
2660 0 0 0
2661 0 0 0
2662 0 0 0
2663 0 0 0
2664 0 0 0
2665 0 0 0
2666 0 0 0
2667 0 0 0
2668 0 0 0
2669 0 0 0
2670 0 0 0
2671 0 0 0
2672 0 0 0
2673 0 0 0
2674 0 0 0
2675 0 0 0
2676 0 0 0
2677 0 0 0
2678 0 0 0
2679 0 0 0
2680 0 0 0
2681 0 0 0
2682 0 0 0
2683 0 0 0
2684 0 0 0
2685 0 0 0
2686 0 0 0
2687 0 0 0
2688 0 0 0
2689 0 0 0
2690 0 0 0
2691 0 0 0
2692 0 0 0
2693 0 0 0
2694 0 0 0
2695 0 0 0
2696 0 0 0
2697 0 0 0
2698 0 0 0
2699 0 0 0
2700 0 0 0
2701 0 0 0
2702 0 0 0
2703 0 0 0
2704 0 0 0
2705 0 0 0
2706 0 0 0
2707 0 0 0
2708 0 0 0
2709 0 0 0
2710 0 0 0
2711 0 0 0
2712 0 0 0
2713 0 0 0
2714 0 0 0
2715 0 0 0
2716 0 0 0
2717 0 0 0
2718 0 0 0
2719 0 0 0
2720 0 0 0
2721 0 0 0
2722 0 0 0
2723 0 0 0
2724 0 0 0
2725 0 0 0
2726 0 0 0
2727 0 0 0
2728 0 0 0
2729 0 0 0
2730 0 0 0
2731 0 0 0
2732 0 0 0
2733 0 0 0
2734 0 0 0
2735 0 0 0
2736 0 0 0
2737 0 0 0
2738 0 0 0
2739 0 0 0
2740 0 0 0
2741 0 0 0
2742 0 0 0
2743 0 0 0
2744 0 0 0
2745 0 0 0
2746 0 0 0
2747 0 0 0
2748 0 0 0
2749 0 0 0
2750 0 0 0
2751 0 0 0
2752 0 0 0
2753 0 0 0
2754 0 0 0
2755 0 0 0
2756 0 0 0
2757 0 0 0
2758 0 0 0
2759 0 0 0
2760 0 0 0
3313 0 0 0
3314 0 0 0
3315 0 0 0
3316 0 0 0
3317 0 0 0
3318 0 0 0
3319 0 0 0
3320 0 0 0
3321 0 0 0
3322 0 0 0
3323 0 0 0
3324 0 0 0
3325 0 0 0
3326 0 0 0
3327 0 0 0
3328 0 0 0
3329 0 0 0
3330 0 0 0
3331 0 0 0
3332 0 0 0
3333 0 0 0
3334 0 0 0
3335 0 0 0
3336 0 0 0
3337 0 0 0
3338 0 0 0
3339 0 0 0
3340 0 0 0
3341 0 0 0
3342 0 0 0
3343 0 0 0
3344 0 0 0
3345 0 0 0
3346 0 0 0
3347 0 0 0
3348 0 0 0
3349 0 0 0
3350 0 0 0
3351 0 0 0
3352 0 0 0
3353 0 0 0
3354 0 0 0
3355 0 0 0
3356 0 0 0
3357 0 0 0
3358 0 0 0
3359 0 0 0
3360 0 0 0
3361 0 0 0
3362 0 0 0
3363 0 0 0
3364 0 0 0
3365 0 0 0
3366 0 0 0
3367 0 0 0
3368 0 0 0
3369 0 0 0
3370 0 0 0
3371 0 0 0
3372 0 0 0
3373 0 0 0
3374 0 0 0
3375 0 0 0
3376 0 0 0
3377 0 0 0
3378 0 0 0
3379 0 0 0
3380 0 0 0
3381 0 0 0
3382 0 0 0
3383 0 0 0
3384 0 0 0
3385 0 0 0
3386 0 0 0
3387 0 0 0
3388 0 0 0
3389 0 0 0
3390 0 0 0
3391 0 0 0
3392 0 0 0
3393 0 0 0
3394 0 0 0
3395 0 0 0
3396 0 0 0
3397 0 0 0
3398 0 0 0
3399 0 0 0
3400 0 0 0
3401 0 0 0
3402 0 0 0
3403 0 0 0
3404 0 0 0
3405 0 0 0
3406 0 0 0
3407 0 0 0
3408 0 0 0
3409 0 0 0
3410 0 0 0
3411 0 0 0
3412 0 0 0
3413 0 0 0
3414 0 0 0
3415 0 0 0
3416 0 0 0
3417 0 0 0
3418 0 0 0
3419 0 0 0
3420 0 0 0
3421 0 0 0
3422 0 0 0
3423 0 0 0
3424 0 0 0
3425 0 0 0
3426 0 0 0
3427 0 0 0
3428 0 0 0
3429 0 0 0
3430 0 0 0
3431 0 0 0
3432 0 0 0
3433 0 0 0
3434 0 0 0
3435 0 0 0
3436 0 0 0
3437 0 0 0
3438 0 0 0
3439 0 0 0
3440 0 0 0
3441 0 0 0
3442 0 0 0
3443 0 0 0
3444 0 0 0
3445 0 0 0
3446 0 0 0
3447 0 0 0
3448 0 0 0
3449 0 0 0
3450 0 0 0
3451 0 0 0
3452 0 0 0
3453 0 0 0
3454 0 0 0
3455 0 0 0
3456 0 0 0
3457 0 0 0
3458 0 0 0
3459 0 0 0
3460 0 0 0
3461 0 0 0
3462 0 0 0
3463 0 0 0
3464 0 0 0
3465 0 0 0
3466 0 0 0
3467 0 0 0
3468 0 0 0
3469 0 0 0
3470 0 0 0
3471 0 0 0
3472 0 0 0
3473 0 0 0
3474 0 0 0
3475 0 0 0
3476 0 0 0
3477 0 0 0
3478 0 0 0
3479 0 0 0
3480 0 0 0
3481 0 0 0
3482 0 0 0
3483 0 0 0
3484 0 0 0
3485 0 0 0
3486 0 0 0
3487 0 0 0
3488 0 0 0
3489 0 0 0
3490 0 0 0
3491 0 0 0
3492 0 0 0
3493 0 0 0
3494 0 0 0
3495 0 0 0
3496 0 0 0
4049 0 0 0
4050 0 0 0
4051 0 0 0
4052 0 0 0
4053 0 0 0
4054 0 0 0
4055 0 0 0
4056 0 0 0
4057 0 0 0
4058 0 0 0
4059 0 0 0
4060 0 0 0
4061 0 0 0
4062 0 0 0
4063 0 0 0
4064 0 0 0
4065 0 0 0
4066 0 0 0
4067 0 0 0
4068 0 0 0
4069 0 0 0
4070 0 0 0
4071 0 0 0
4072 0 0 0
4073 0 0 0
4074 0 0 0
4075 0 0 0
4076 0 0 0
4077 0 0 0
4078 0 0 0
4079 0 0 0
4080 0 0 0
4081 0 0 0
4082 0 0 0
4083 0 0 0
4084 0 0 0
4085 0 0 0
4086 0 0 0
4087 0 0 0
4088 0 0 0
4089 0 0 0
4090 0 0 0
4091 0 0 0
4092 0 0 0
4093 0 0 0
4094 0 0 0
4095 0 0 0
4096 0 0 0
4097 0 0 0
4098 0 0 0
4099 0 0 0
4100 0 0 0
4101 0 0 0
4102 0 0 0
4103 0 0 0
4104 0 0 0
4105 0 0 0
4106 0 0 0
4107 0 0 0
4108 0 0 0
4109 0 0 0
4110 0 0 0
4111 0 0 0
4112 0 0 0
4113 0 0 0
4114 0 0 0
4115 0 0 0
4116 0 0 0
4117 0 0 0
4118 0 0 0
4119 0 0 0
4120 0 0 0
4121 0 0 0
4122 0 0 0
4123 0 0 0
4124 0 0 0
4125 0 0 0
4126 0 0 0
4127 0 0 0
4128 0 0 0
4129 0 0 0
4130 0 0 0
4131 0 0 0
4132 0 0 0
4133 0 0 0
4134 0 0 0
4135 0 0 0
4136 0 0 0
4137 0 0 0
4138 0 0 0
4139 0 0 0
4140 0 0 0
4141 0 0 0
4142 0 0 0
4143 0 0 0
4144 0 0 0
4145 0 0 0
4146 0 0 0
4147 0 0 0
4148 0 0 0
4149 0 0 0
4150 0 0 0
4151 0 0 0
4152 0 0 0
4153 0 0 0
4154 0 0 0
4155 0 0 0
4156 0 0 0
4157 0 0 0
4158 0 0 0
4159 0 0 0
4160 0 0 0
4161 0 0 0
4162 0 0 0
4163 0 0 0
4164 0 0 0
4165 0 0 0
4166 0 0 0
4167 0 0 0
4168 0 0 0
4169 0 0 0
4170 0 0 0
4171 0 0 0
4172 0 0 0
4173 0 0 0
4174 0 0 0
4175 0 0 0
4176 0 0 0
4177 0 0 0
4178 0 0 0
4179 0 0 0
4180 0 0 0
4181 0 0 0
4182 0 0 0
4183 0 0 0
4184 0 0 0
4185 0 0 0
4186 0 0 0
4187 0 0 0
4188 0 0 0
4189 0 0 0
4190 0 0 0
4191 0 0 0
4192 0 0 0
4193 0 0 0
4194 0 0 0
4195 0 0 0
4196 0 0 0
4197 0 0 0
4198 0 0 0
4199 0 0 0
4200 0 0 0
4201 0 0 0
4202 0 0 0
4203 0 0 0
4204 0 0 0
4205 0 0 0
4206 0 0 0
4207 0 0 0
4208 0 0 0
4209 0 0 0
4210 0 0 0
4211 0 0 0
4212 0 0 0
4213 0 0 0
4214 0 0 0
4215 0 0 0
4216 0 0 0
4217 0 0 0
4218 0 0 0
4219 0 0 0
4220 0 0 0
4221 0 0 0
4222 0 0 0
4223 0 0 0
4224 0 0 0
4225 0 0 0
4226 0 0 0
4227 0 0 0
4228 0 0 0
4229 0 0 0
4230 0 0 0
4231 0 0 0
4232 0 0 0
4785 0 0 0
4786 0 0 0
4787 0 0 0
4788 0 0 0
4789 0 0 0
4790 0 0 0
4791 0 0 0
4792 0 0 0
4793 0 0 0
4794 0 0 0
4795 0 0 0
4796 0 0 0
4797 0 0 0
4798 0 0 0
4799 0 0 0
4800 0 0 0
4801 0 0 0
4802 0 0 0
4803 0 0 0
4804 0 0 0
4805 0 0 0
4806 0 0 0
4807 0 0 0
4808 0 0 0
4809 0 0 0
4810 0 0 0
4811 0 0 0
4812 0 0 0
4813 0 0 0
4814 0 0 0
4815 0 0 0
4816 0 0 0
4817 0 0 0
4818 0 0 0
4819 0 0 0
4820 0 0 0
4821 0 0 0
4822 0 0 0
4823 0 0 0
4824 0 0 0
4825 0 0 0
4826 0 0 0
4827 0 0 0
4828 0 0 0
4829 0 0 0
4830 0 0 0
4831 0 0 0
4832 0 0 0
4833 0 0 0
4834 0 0 0
4835 0 0 0
4836 0 0 0
4837 0 0 0
4838 0 0 0
4839 0 0 0
4840 0 0 0
4841 0 0 0
4842 0 0 0
4843 0 0 0
4844 0 0 0
4845 0 0 0
4846 0 0 0
4847 0 0 0
4848 0 0 0
4849 0 0 0
4850 0 0 0
4851 0 0 0
4852 0 0 0
4853 0 0 0
4854 0 0 0
4855 0 0 0
4856 0 0 0
4857 0 0 0
4858 0 0 0
4859 0 0 0
4860 0 0 0
4861 0 0 0
4862 0 0 0
4863 0 0 0
4864 0 0 0
4865 0 0 0
4866 0 0 0
4867 0 0 0
4868 0 0 0
4869 0 0 0
4870 0 0 0
4871 0 0 0
4872 0 0 0
4873 0 0 0
4874 0 0 0
4875 0 0 0
4876 0 0 0
4877 0 0 0
4878 0 0 0
4879 0 0 0
4880 0 0 0
4881 0 0 0
4882 0 0 0
4883 0 0 0
4884 0 0 0
4885 0 0 0
4886 0 0 0
4887 0 0 0
4888 0 0 0
4889 0 0 0
4890 0 0 0
4891 0 0 0
4892 0 0 0
4893 0 0 0
4894 0 0 0
4895 0 0 0
4896 0 0 0
4897 0 0 0
4898 0 0 0
4899 0 0 0
4900 0 0 0
4901 0 0 0
4902 0 0 0
4903 0 0 0
4904 0 0 0
4905 0 0 0
4906 0 0 0
4907 0 0 0
4908 0 0 0
4909 0 0 0
4910 0 0 0
4911 0 0 0
4912 0 0 0
4913 0 0 0
4914 0 0 0
4915 0 0 0
4916 0 0 0
4917 0 0 0
4918 0 0 0
4919 0 0 0
4920 0 0 0
4921 0 0 0
4922 0 0 0
4923 0 0 0
4924 0 0 0
4925 0 0 0
4926 0 0 0
4927 0 0 0
4928 0 0 0
4929 0 0 0
4930 0 0 0
4931 0 0 0
4932 0 0 0
4933 0 0 0
4934 0 0 0
4935 0 0 0
4936 0 0 0
4937 0 0 0
4938 0 0 0
4939 0 0 0
4940 0 0 0
4941 0 0 0
4942 0 0 0
4943 0 0 0
4944 0 0 0
4945 0 0 0
4946 0 0 0
4947 0 0 0
4948 0 0 0
4949 0 0 0
4950 0 0 0
4951 0 0 0
4952 0 0 0
4953 0 0 0
4954 0 0 0
4955 0 0 0
4956 0 0 0
4957 0 0 0
4958 0 0 0
4959 0 0 0
4960 0 0 0
4961 0 0 0
4962 0 0 0
4963 0 0 0
4964 0 0 0
4965 0 0 0
4966 0 0 0
4967 0 0 0
4968 0 0 0
5521 0 0 0
5522 0 0 0
5523 0 0 0
5524 0 0 0
5525 0 0 0
5526 0 0 0
5527 0 0 0
5528 0 0 0
5529 0 0 0
5530 0 0 0
5531 0 0 0
5532 0 0 0
5533 0 0 0
5534 0 0 0
5535 0 0 0
5536 0 0 0
5537 0 0 0
5538 0 0 0
5539 0 0 0
5540 0 0 0
5541 0 0 0
5542 0 0 0
5543 0 0 0
5544 0 0 0
5545 0 0 0
5546 0 0 0
5547 0 0 0
5548 0 0 0
5549 0 0 0
5550 0 0 0
5551 0 0 0
5552 0 0 0
5553 0 0 0
5554 0 0 0
5555 0 0 0
5556 0 0 0
5557 0 0 0
5558 0 0 0
5559 0 0 0
5560 0 0 0
5561 0 0 0
5562 0 0 0
5563 0 0 0
5564 0 0 0
5565 0 0 0
5566 0 0 0
5567 0 0 0
5568 0 0 0
5569 0 0 0
5570 0 0 0
5571 0 0 0
5572 0 0 0
5573 0 0 0
5574 0 0 0
5575 0 0 0
5576 0 0 0
5577 0 0 0
5578 0 0 0
5579 0 0 0
5580 0 0 0
5581 0 0 0
5582 0 0 0
5583 0 0 0
5584 0 0 0
5585 0 0 0
5586 0 0 0
5587 0 0 0
5588 0 0 0
5589 0 0 0
5590 0 0 0
5591 0 0 0
5592 0 0 0
5593 0 0 0
5594 0 0 0
5595 0 0 0
5596 0 0 0
5597 0 0 0
5598 0 0 0
5599 0 0 0
5600 0 0 0
5601 0 0 0
5602 0 0 0
5603 0 0 0
5604 0 0 0
5605 0 0 0
5606 0 0 0
5607 0 0 0
5608 0 0 0
5609 0 0 0
5610 0 0 0
5611 0 0 0
5612 0 0 0
5613 0 0 0
5614 0 0 0
5615 0 0 0
5616 0 0 0
5617 0 0 0
5618 0 0 0
5619 0 0 0
5620 0 0 0
5621 0 0 0
5622 0 0 0
5623 0 0 0
5624 0 0 0
5625 0 0 0
5626 0 0 0
5627 0 0 0
5628 0 0 0
5629 0 0 0
5630 0 0 0
5631 0 0 0
5632 0 0 0
5633 0 0 0
5634 0 0 0
5635 0 0 0
5636 0 0 0
5637 0 0 0
5638 0 0 0
5639 0 0 0
5640 0 0 0
5641 0 0 0
5642 0 0 0
5643 0 0 0
5644 0 0 0
5645 0 0 0
5646 0 0 0
5647 0 0 0
5648 0 0 0
5649 0 0 0
5650 0 0 0
5651 0 0 0
5652 0 0 0
5653 0 0 0
5654 0 0 0
5655 0 0 0
5656 0 0 0
5657 0 0 0
5658 0 0 0
5659 0 0 0
5660 0 0 0
5661 0 0 0
5662 0 0 0
5663 0 0 0
5664 0 0 0
5665 0 0 0
5666 0 0 0
5667 0 0 0
5668 0 0 0
5669 0 0 0
5670 0 0 0
5671 0 0 0
5672 0 0 0
5673 0 0 0
5674 0 0 0
5675 0 0 0
5676 0 0 0
5677 0 0 0
5678 0 0 0
5679 0 0 0
5680 0 0 0
5681 0 0 0
5682 0 0 0
5683 0 0 0
5684 0 0 0
5685 0 0 0
5686 0 0 0
5687 0 0 0
5688 0 0 0
5689 0 0 0
5690 0 0 0
5691 0 0 0
5692 0 0 0
5693 0 0 0
5694 0 0 0
5695 0 0 0
5696 0 0 0
5697 0 0 0
5698 0 0 0
5699 0 0 0
5700 0 0 0
5701 0 0 0
5702 0 0 0
5703 0 0 0
5704 0 0 0
6257 0 0 0
6258 0 0 0
6259 0 0 0
6260 0 0 0
6261 0 0 0
6262 0 0 0
6263 0 0 0
6264 0 0 0
6265 0 0 0
6266 0 0 0
6267 0 0 0
6268 0 0 0
6269 0 0 0
6270 0 0 0
6271 0 0 0
6272 0 0 0
6273 0 0 0
6274 0 0 0
6275 0 0 0
6276 0 0 0
6277 0 0 0
6278 0 0 0
6279 0 0 0
6280 0 0 0
6281 0 0 0
6282 0 0 0
6283 0 0 0
6284 0 0 0
6285 0 0 0
6286 0 0 0
6287 0 0 0
6288 0 0 0
6289 0 0 0
6290 0 0 0
6291 0 0 0
6292 0 0 0
6293 0 0 0
6294 0 0 0
6295 0 0 0
6296 0 0 0
6297 0 0 0
6298 0 0 0
6299 0 0 0
6300 0 0 0
6301 0 0 0
6302 0 0 0
6303 0 0 0
6304 0 0 0
6305 0 0 0
6306 0 0 0
6307 0 0 0
6308 0 0 0
6309 0 0 0
6310 0 0 0
6311 0 0 0
6312 0 0 0
6313 0 0 0
6314 0 0 0
6315 0 0 0
6316 0 0 0
6317 0 0 0
6318 0 0 0
6319 0 0 0
6320 0 0 0
6321 0 0 0
6322 0 0 0
6323 0 0 0
6324 0 0 0
6325 0 0 0
6326 0 0 0
6327 0 0 0
6328 0 0 0
6329 0 0 0
6330 0 0 0
6331 0 0 0
6332 0 0 0
6333 0 0 0
6334 0 0 0
6335 0 0 0
6336 0 0 0
6337 0 0 0
6338 0 0 0
6339 0 0 0
6340 0 0 0
6341 0 0 0
6342 0 0 0
6343 0 0 0
6344 0 0 0
6345 0 0 0
6346 0 0 0
6347 0 0 0
6348 0 0 0
6349 0 0 0
6350 0 0 0
6351 0 0 0
6352 0 0 0
6353 0 0 0
6354 0 0 0
6355 0 0 0
6356 0 0 0
6357 0 0 0
6358 0 0 0
6359 0 0 0
6360 0 0 0
6361 0 0 0
6362 0 0 0
6363 0 0 0
6364 0 0 0
6365 0 0 0
6366 0 0 0
6367 0 0 0
6368 0 0 0
6369 0 0 0
6370 0 0 0
6371 0 0 0
6372 0 0 0
6373 0 0 0
6374 0 0 0
6375 0 0 0
6376 0 0 0
6377 0 0 0
6378 0 0 0
6379 0 0 0
6380 0 0 0
6381 0 0 0
6382 0 0 0
6383 0 0 0
6384 0 0 0
6385 0 0 0
6386 0 0 0
6387 0 0 0
6388 0 0 0
6389 0 0 0
6390 0 0 0
6391 0 0 0
6392 0 0 0
6393 0 0 0
6394 0 0 0
6395 0 0 0
6396 0 0 0
6397 0 0 0
6398 0 0 0
6399 0 0 0
6400 0 0 0
6401 0 0 0
6402 0 0 0
6403 0 0 0
6404 0 0 0
6405 0 0 0
6406 0 0 0
6407 0 0 0
6408 0 0 0
6409 0 0 0
6410 0 0 0
6411 0 0 0
6412 0 0 0
6413 0 0 0
6414 0 0 0
6415 0 0 0
6416 0 0 0
6417 0 0 0
6418 0 0 0
6419 0 0 0
6420 0 0 0
6421 0 0 0
6422 0 0 0
6423 0 0 0
6424 0 0 0
6425 0 0 0
6426 0 0 0
6427 0 0 0
6428 0 0 0
6429 0 0 0
6430 0 0 0
6431 0 0 0
6432 0 0 0
6433 0 0 0
6434 0 0 0
6435 0 0 0
6436 0 0 0
6437 0 0 0
6438 0 0 0
6439 0 0 0
6440 0 0 0
6993 0 0 0
6994 0 0 0
6995 0 0 0
6996 0 0 0
6997 0 0 0
6998 0 0 0
6999 0 0 0
7000 0 0 0
7001 0 0 0
7002 0 0 0
7003 0 0 0
7004 0 0 0
7005 0 0 0
7006 0 0 0
7007 0 0 0
7008 0 0 0
7009 0 0 0
7010 0 0 0
7011 0 0 0
7012 0 0 0
7013 0 0 0
7014 0 0 0
7015 0 0 0
7016 0 0 0
7017 0 0 0
7018 0 0 0
7019 0 0 0
7020 0 0 0
7021 0 0 0
7022 0 0 0
7023 0 0 0
7024 0 0 0
7025 0 0 0
7026 0 0 0
7027 0 0 0
7028 0 0 0
7029 0 0 0
7030 0 0 0
7031 0 0 0
7032 0 0 0
7033 0 0 0
7034 0 0 0
7035 0 0 0
7036 0 0 0
7037 0 0 0
7038 0 0 0
7039 0 0 0
7040 0 0 0
7041 0 0 0
7042 0 0 0
7043 0 0 0
7044 0 0 0
7045 0 0 0
7046 0 0 0
7047 0 0 0
7048 0 0 0
7049 0 0 0
7050 0 0 0
7051 0 0 0
7052 0 0 0
7053 0 0 0
7054 0 0 0
7055 0 0 0
7056 0 0 0
7057 0 0 0
7058 0 0 0
7059 0 0 0
7060 0 0 0
7061 0 0 0
7062 0 0 0
7063 0 0 0
7064 0 0 0
7065 0 0 0
7066 0 0 0
7067 0 0 0
7068 0 0 0
7069 0 0 0
7070 0 0 0
7071 0 0 0
7072 0 0 0
7073 0 0 0
7074 0 0 0
7075 0 0 0
7076 0 0 0
7077 0 0 0
7078 0 0 0
7079 0 0 0
7080 0 0 0
7081 0 0 0
7082 0 0 0
7083 0 0 0
7084 0 0 0
7085 0 0 0
7086 0 0 0
7087 0 0 0
7088 0 0 0
7089 0 0 0
7090 0 0 0
7091 0 0 0
7092 0 0 0
7093 0 0 0
7094 0 0 0
7095 0 0 0
7096 0 0 0
7097 0 0 0
7098 0 0 0
7099 0 0 0
7100 0 0 0
7101 0 0 0
7102 0 0 0
7103 0 0 0
7104 0 0 0
7105 0 0 0
7106 0 0 0
7107 0 0 0
7108 0 0 0
7109 0 0 0
7110 0 0 0
7111 0 0 0
7112 0 0 0
7113 0 0 0
7114 0 0 0
7115 0 0 0
7116 0 0 0
7117 0 0 0
7118 0 0 0
7119 0 0 0
7120 0 0 0
7121 0 0 0
7122 0 0 0
7123 0 0 0
7124 0 0 0
7125 0 0 0
7126 0 0 0
7127 0 0 0
7128 0 0 0
7129 0 0 0
7130 0 0 0
7131 0 0 0
7132 0 0 0
7133 0 0 0
7134 0 0 0
7135 0 0 0
7136 0 0 0
7137 0 0 0
7138 0 0 0
7139 0 0 0
7140 0 0 0
7141 0 0 0
7142 0 0 0
7143 0 0 0
7144 0 0 0
7145 0 0 0
7146 0 0 0
7147 0 0 0
7148 0 0 0
7149 0 0 0
7150 0 0 0
7151 0 0 0
7152 0 0 0
7153 0 0 0
7154 0 0 0
7155 0 0 0
7156 0 0 0
7157 0 0 0
7158 0 0 0
7159 0 0 0
7160 0 0 0
7161 0 0 0
7162 0 0 0
7163 0 0 0
7164 0 0 0
7165 0 0 0
7166 0 0 0
7167 0 0 0
7168 0 0 0
7169 0 0 0
7170 0 0 0
7171 0 0 0
7172 0 0 0
7173 0 0 0
7174 0 0 0
7175 0 0 0
7176 0 0 0
7729 0 0 0
7730 0 0 0
7731 0 0 0
7732 0 0 0
7733 0 0 0
7734 0 0 0
7735 0 0 0
7736 0 0 0
7737 0 0 0
7738 0 0 0
7739 0 0 0
7740 0 0 0
7741 0 0 0
7742 0 0 0
7743 0 0 0
7744 0 0 0
7745 0 0 0
7746 0 0 0
7747 0 0 0
7748 0 0 0
7749 0 0 0
7750 0 0 0
7751 0 0 0
7752 0 0 0
7753 0 0 0
7754 0 0 0
7755 0 0 0
7756 0 0 0
7757 0 0 0
7758 0 0 0
7759 0 0 0
7760 0 0 0
7761 0 0 0
7762 0 0 0
7763 0 0 0
7764 0 0 0
7765 0 0 0
7766 0 0 0
7767 0 0 0
7768 0 0 0
7769 0 0 0
7770 0 0 0
7771 0 0 0
7772 0 0 0
7773 0 0 0
7774 0 0 0
7775 0 0 0
7776 0 0 0
7777 0 0 0
7778 0 0 0
7779 0 0 0
7780 0 0 0
7781 0 0 0
7782 0 0 0
7783 0 0 0
7784 0 0 0
7785 0 0 0
7786 0 0 0
7787 0 0 0
7788 0 0 0
7789 0 0 0
7790 0 0 0
7791 0 0 0
7792 0 0 0
7793 0 0 0
7794 0 0 0
7795 0 0 0
7796 0 0 0
7797 0 0 0
7798 0 0 0
7799 0 0 0
7800 0 0 0
7801 0 0 0
7802 0 0 0
7803 0 0 0
7804 0 0 0
7805 0 0 0
7806 0 0 0
7807 0 0 0
7808 0 0 0
7809 0 0 0
7810 0 0 0
7811 0 0 0
7812 0 0 0
7813 0 0 0
7814 0 0 0
7815 0 0 0
7816 0 0 0
7817 0 0 0
7818 0 0 0
7819 0 0 0
7820 0 0 0
7821 0 0 0
7822 0 0 0
7823 0 0 0
7824 0 0 0
7825 0 0 0
7826 0 0 0
7827 0 0 0
7828 0 0 0
7829 0 0 0
7830 0 0 0
7831 0 0 0
7832 0 0 0
7833 0 0 0
7834 0 0 0
7835 0 0 0
7836 0 0 0
7837 0 0 0
7838 0 0 0
7839 0 0 0
7840 0 0 0
7841 0 0 0
7842 0 0 0
7843 0 0 0
7844 0 0 0
7845 0 0 0
7846 0 0 0
7847 0 0 0
7848 0 0 0
7849 0 0 0
7850 0 0 0
7851 0 0 0
7852 0 0 0
7853 0 0 0
7854 0 0 0
7855 0 0 0
7856 0 0 0
7857 0 0 0
7858 0 0 0
7859 0 0 0
7860 0 0 0
7861 0 0 0
7862 0 0 0
7863 0 0 0
7864 0 0 0
7865 0 0 0
7866 0 0 0
7867 0 0 0
7868 0 0 0
7869 0 0 0
7870 0 0 0
7871 0 0 0
7872 0 0 0
7873 0 0 0
7874 0 0 0
7875 0 0 0
7876 0 0 0
7877 0 0 0
7878 0 0 0
7879 0 0 0
7880 0 0 0
7881 0 0 0
7882 0 0 0
7883 0 0 0
7884 0 0 0
7885 0 0 0
7886 0 0 0
7887 0 0 0
7888 0 0 0
7889 0 0 0
7890 0 0 0
7891 0 0 0
7892 0 0 0
7893 0 0 0
7894 0 0 0
7895 0 0 0
7896 0 0 0
7897 0 0 0
7898 0 0 0
7899 0 0 0
7900 0 0 0
7901 0 0 0
7902 0 0 0
7903 0 0 0
7904 0 0 0
7905 0 0 0
7906 0 0 0
7907 0 0 0
7908 0 0 0
7909 0 0 0
7910 0 0 0
7911 0 0 0
7912 0 0 0
553 0 0 0
554 0 0 0
555 0 0 0
556 0 0 0
557 0 0 0
558 0 0 0
559 0 0 0
560 0 0 0
561 0 0 0
562 0 0 0
563 0 0 0
564 0 0 0
565 0 0 0
566 0 0 0
567 0 0 0
568 0 0 0
569 0 0 0
570 0 0 0
571 0 0 0
572 0 0 0
573 0 0 0
574 0 0 0
575 0 0 0
576 0 0 0
577 0 0 0
578 0 0 0
579 0 0 0
580 0 0 0
581 0 0 0
582 0 0 0
583 0 0 0
584 0 0 0
585 0 0 0
586 0 0 0
587 0 0 0
588 0 0 0
589 0 0 0
590 0 0 0
591 0 0 0
592 0 0 0
593 0 0 0
594 0 0 0
595 0 0 0
596 0 0 0
597 0 0 0
598 0 0 0
599 0 0 0
600 0 0 0
601 0 0 0
602 0 0 0
603 0 0 0
604 0 0 0
605 0 0 0
606 0 0 0
607 0 0 0
608 0 0 0
609 0 0 0
610 0 0 0
611 0 0 0
612 0 0 0
613 0 0 0
614 0 0 0
615 0 0 0
616 0 0 0
617 0 0 0
618 0 0 0
619 0 0 0
620 0 0 0
621 0 0 0
622 0 0 0
623 0 0 0
624 0 0 0
625 0 0 0
626 0 0 0
627 0 0 0
628 0 0 0
629 0 0 0
630 0 0 0
631 0 0 0
632 0 0 0
633 0 0 0
634 0 0 0
635 0 0 0
636 0 0 0
637 0 0 0
638 0 0 0
639 0 0 0
640 0 0 0
641 0 0 0
642 0 0 0
643 0 0 0
644 0 0 0
645 0 0 0
646 0 0 0
647 0 0 0
648 0 0 0
649 0 0 0
650 0 0 0
651 0 0 0
652 0 0 0
653 0 0 0
654 0 0 0
655 0 0 0
656 0 0 0
657 0 0 0
658 0 0 0
659 0 0 0
660 0 0 0
661 0 0 0
662 0 0 0
663 0 0 0
664 0 0 0
665 0 0 0
666 0 0 0
667 0 0 0
668 0 0 0
669 0 0 0
670 0 0 0
671 0 0 0
672 0 0 0
673 0 0 0
674 0 0 0
675 0 0 0
676 0 0 0
677 0 0 0
678 0 0 0
679 0 0 0
680 0 0 0
681 0 0 0
682 0 0 0
683 0 0 0
684 0 0 0
685 0 0 0
686 0 0 0
687 0 0 0
688 0 0 0
689 0 0 0
690 0 0 0
691 0 0 0
692 0 0 0
693 0 0 0
694 0 0 0
695 0 0 0
696 0 0 0
697 0 0 0
698 0 0 0
699 0 0 0
700 0 0 0
701 0 0 0
702 0 0 0
703 0 0 0
704 0 0 0
705 0 0 0
706 0 0 0
707 0 0 0
708 0 0 0
709 0 0 0
710 0 0 0
711 0 0 0
712 0 0 0
713 0 0 0
714 0 0 0
715 0 0 0
716 0 0 0
717 0 0 0
718 0 0 0
719 0 0 0
720 0 0 0
721 0 0 0
722 0 0 0
723 0 0 0
724 0 0 0
725 0 0 0
726 0 0 0
727 0 0 0
728 0 0 0
729 0 0 0
730 0 0 0
731 0 0 0
732 0 0 0
733 0 0 0
734 0 0 0
735 0 0 0
736 0 0 0
1289 0 0 0
1290 0 0 0
1291 0 0 0
1292 0 0 0
1293 0 0 0
1294 0 0 0
1295 0 0 0
1296 0 0 0
1297 0 0 0
1298 0 0 0
1299 0 0 0
1300 0 0 0
1301 0 0 0
1302 0 0 0
1303 0 0 0
1304 0 0 0
1305 0 0 0
1306 0 0 0
1307 0 0 0
1308 0 0 0
1309 0 0 0
1310 0 0 0
1311 0 0 0
1312 0 0 0
1313 0 0 0
1314 0 0 0
1315 0 0 0
1316 0 0 0
1317 0 0 0
1318 0 0 0
1319 0 0 0
1320 0 0 0
1321 0 0 0
1322 0 0 0
1323 0 0 0
1324 0 0 0
1325 0 0 0
1326 0 0 0
1327 0 0 0
1328 0 0 0
1329 0 0 0
1330 0 0 0
1331 0 0 0
1332 0 0 0
1333 0 0 0
1334 0 0 0
1335 0 0 0
1336 0 0 0
1337 0 0 0
1338 0 0 0
1339 0 0 0
1340 0 0 0
1341 0 0 0
1342 0 0 0
1343 0 0 0
1344 0 0 0
1345 0 0 0
1346 0 0 0
1347 0 0 0
1348 0 0 0
1349 0 0 0
1350 0 0 0
1351 0 0 0
1352 0 0 0
1353 0 0 0
1354 0 0 0
1355 0 0 0
1356 0 0 0
1357 0 0 0
1358 0 0 0
1359 0 0 0
1360 0 0 0
1361 0 0 0
1362 0 0 0
1363 0 0 0
1364 0 0 0
1365 0 0 0
1366 0 0 0
1367 0 0 0
1368 0 0 0
1369 0 0 0
1370 0 0 0
1371 0 0 0
1372 0 0 0
1373 0 0 0
1374 0 0 0
1375 0 0 0
1376 0 0 0
1377 0 0 0
1378 0 0 0
1379 0 0 0
1380 0 0 0
1381 0 0 0
1382 0 0 0
1383 0 0 0
1384 0 0 0
1385 0 0 0
1386 0 0 0
1387 0 0 0
1388 0 0 0
1389 0 0 0
1390 0 0 0
1391 0 0 0
1392 0 0 0
1393 0 0 0
1394 0 0 0
1395 0 0 0
1396 0 0 0
1397 0 0 0
1398 0 0 0
1399 0 0 0
1400 0 0 0
1401 0 0 0
1402 0 0 0
1403 0 0 0
1404 0 0 0
1405 0 0 0
1406 0 0 0
1407 0 0 0
1408 0 0 0
1409 0 0 0
1410 0 0 0
1411 0 0 0
1412 0 0 0
1413 0 0 0
1414 0 0 0
1415 0 0 0
1416 0 0 0
1417 0 0 0
1418 0 0 0
1419 0 0 0
1420 0 0 0
1421 0 0 0
1422 0 0 0
1423 0 0 0
1424 0 0 0
1425 0 0 0
1426 0 0 0
1427 0 0 0
1428 0 0 0
1429 0 0 0
1430 0 0 0
1431 0 0 0
1432 0 0 0
1433 0 0 0
1434 0 0 0
1435 0 0 0
1436 0 0 0
1437 0 0 0
1438 0 0 0
1439 0 0 0
1440 0 0 0
1441 0 0 0
1442 0 0 0
1443 0 0 0
1444 0 0 0
1445 0 0 0
1446 0 0 0
1447 0 0 0
1448 0 0 0
1449 0 0 0
1450 0 0 0
1451 0 0 0
1452 0 0 0
1453 0 0 0
1454 0 0 0
1455 0 0 0
1456 0 0 0
1457 0 0 0
1458 0 0 0
1459 0 0 0
1460 0 0 0
1461 0 0 0
1462 0 0 0
1463 0 0 0
1464 0 0 0
1465 0 0 0
1466 0 0 0
1467 0 0 0
1468 0 0 0
1469 0 0 0
1470 0 0 0
1471 0 0 0
1472 0 0 0
2025 0 0 0
2026 0 0 0
2027 0 0 0
2028 0 0 0
2029 0 0 0
2030 0 0 0
2031 0 0 0
2032 0 0 0
2033 0 0 0
2034 0 0 0
2035 0 0 0
2036 0 0 0
2037 0 0 0
2038 0 0 0
2039 0 0 0
2040 0 0 0
2041 0 0 0
2042 0 0 0
2043 0 0 0
2044 0 0 0
2045 0 0 0
2046 0 0 0
2047 0 0 0
2048 0 0 0
2049 0 0 0
2050 0 0 0
2051 0 0 0
2052 0 0 0
2053 0 0 0
2054 0 0 0
2055 0 0 0
2056 0 0 0
2057 0 0 0
2058 0 0 0
2059 0 0 0
2060 0 0 0
2061 0 0 0
2062 0 0 0
2063 0 0 0
2064 0 0 0
2065 0 0 0
2066 0 0 0
2067 0 0 0
2068 0 0 0
2069 0 0 0
2070 0 0 0
2071 0 0 0
2072 0 0 0
2073 0 0 0
2074 0 0 0
2075 0 0 0
2076 0 0 0
2077 0 0 0
2078 0 0 0
2079 0 0 0
2080 0 0 0
2081 0 0 0
2082 0 0 0
2083 0 0 0
2084 0 0 0
2085 0 0 0
2086 0 0 0
2087 0 0 0
2088 0 0 0
2089 0 0 0
2090 0 0 0
2091 0 0 0
2092 0 0 0
2093 0 0 0
2094 0 0 0
2095 0 0 0
2096 0 0 0
2097 0 0 0
2098 0 0 0
2099 0 0 0
2100 0 0 0
2101 0 0 0
2102 0 0 0
2103 0 0 0
2104 0 0 0
2105 0 0 0
2106 0 0 0
2107 0 0 0
2108 0 0 0
2109 0 0 0
2110 0 0 0
2111 0 0 0
2112 0 0 0
2113 0 0 0
2114 0 0 0
2115 0 0 0
2116 0 0 0
2117 0 0 0
2118 0 0 0
2119 0 0 0
2120 0 0 0
2121 0 0 0
2122 0 0 0
2123 0 0 0
2124 0 0 0
2125 0 0 0
2126 0 0 0
2127 0 0 0
2128 0 0 0
2129 0 0 0
2130 0 0 0
2131 0 0 0
2132 0 0 0
2133 0 0 0
2134 0 0 0
2135 0 0 0
2136 0 0 0
2137 0 0 0
2138 0 0 0
2139 0 0 0
2140 0 0 0
2141 0 0 0
2142 0 0 0
2143 0 0 0
2144 0 0 0
2145 0 0 0
2146 0 0 0
2147 0 0 0
2148 0 0 0
2149 0 0 0
2150 0 0 0
2151 0 0 0
2152 0 0 0
2153 0 0 0
2154 0 0 0
2155 0 0 0
2156 0 0 0
2157 0 0 0
2158 0 0 0
2159 0 0 0
2160 0 0 0
2161 0 0 0
2162 0 0 0
2163 0 0 0
2164 0 0 0
2165 0 0 0
2166 0 0 0
2167 0 0 0
2168 0 0 0
2169 0 0 0
2170 0 0 0
2171 0 0 0
2172 0 0 0
2173 0 0 0
2174 0 0 0
2175 0 0 0
2176 0 0 0
2177 0 0 0
2178 0 0 0
2179 0 0 0
2180 0 0 0
2181 0 0 0
2182 0 0 0
2183 0 0 0
2184 0 0 0
2185 0 0 0
2186 0 0 0
2187 0 0 0
2188 0 0 0
2189 0 0 0
2190 0 0 0
2191 0 0 0
2192 0 0 0
2193 0 0 0
2194 0 0 0
2195 0 0 0
2196 0 0 0
2197 0 0 0
2198 0 0 0
2199 0 0 0
2200 0 0 0
2201 0 0 0
2202 0 0 0
2203 0 0 0
2204 0 0 0
2205 0 0 0
2206 0 0 0
2207 0 0 0
2208 0 0 0
2761 0 0 0
2762 0 0 0
2763 0 0 0
2764 0 0 0
2765 0 0 0
2766 0 0 0
2767 0 0 0
2768 0 0 0
2769 0 0 0
2770 0 0 0
2771 0 0 0
2772 0 0 0
2773 0 0 0
2774 0 0 0
2775 0 0 0
2776 0 0 0
2777 0 0 0
2778 0 0 0
2779 0 0 0
2780 0 0 0
2781 0 0 0
2782 0 0 0
2783 0 0 0
2784 0 0 0
2785 0 0 0
2786 0 0 0
2787 0 0 0
2788 0 0 0
2789 0 0 0
2790 0 0 0
2791 0 0 0
2792 0 0 0
2793 0 0 0
2794 0 0 0
2795 0 0 0
2796 0 0 0
2797 0 0 0
2798 0 0 0
2799 0 0 0
2800 0 0 0
2801 0 0 0
2802 0 0 0
2803 0 0 0
2804 0 0 0
2805 0 0 0
2806 0 0 0
2807 0 0 0
2808 0 0 0
2809 0 0 0
2810 0 0 0
2811 0 0 0
2812 0 0 0
2813 0 0 0
2814 0 0 0
2815 0 0 0
2816 0 0 0
2817 0 0 0
2818 0 0 0
2819 0 0 0
2820 0 0 0
2821 0 0 0
2822 0 0 0
2823 0 0 0
2824 0 0 0
2825 0 0 0
2826 0 0 0
2827 0 0 0
2828 0 0 0
2829 0 0 0
2830 0 0 0
2831 0 0 0
2832 0 0 0
2833 0 0 0
2834 0 0 0
2835 0 0 0
2836 0 0 0
2837 0 0 0
2838 0 0 0
2839 0 0 0
2840 0 0 0
2841 0 0 0
2842 0 0 0
2843 0 0 0
2844 0 0 0
2845 0 0 0
2846 0 0 0
2847 0 0 0
2848 0 0 0
2849 0 0 0
2850 0 0 0
2851 0 0 0
2852 0 0 0
2853 0 0 0
2854 0 0 0
2855 0 0 0
2856 0 0 0
2857 0 0 0
2858 0 0 0
2859 0 0 0
2860 0 0 0
2861 0 0 0
2862 0 0 0
2863 0 0 0
2864 0 0 0
2865 0 0 0
2866 0 0 0
2867 0 0 0
2868 0 0 0
2869 0 0 0
2870 0 0 0
2871 0 0 0
2872 0 0 0
2873 0 0 0
2874 0 0 0
2875 0 0 0
2876 0 0 0
2877 0 0 0
2878 0 0 0
2879 0 0 0
2880 0 0 0
2881 0 0 0
2882 0 0 0
2883 0 0 0
2884 0 0 0
2885 0 0 0
2886 0 0 0
2887 0 0 0
2888 0 0 0
2889 0 0 0
2890 0 0 0
2891 0 0 0
2892 0 0 0
2893 0 0 0
2894 0 0 0
2895 0 0 0
2896 0 0 0
2897 0 0 0
2898 0 0 0
2899 0 0 0
2900 0 0 0
2901 0 0 0
2902 0 0 0
2903 0 0 0
2904 0 0 0
2905 0 0 0
2906 0 0 0
2907 0 0 0
2908 0 0 0
2909 0 0 0
2910 0 0 0
2911 0 0 0
2912 0 0 0
2913 0 0 0
2914 0 0 0
2915 0 0 0
2916 0 0 0
2917 0 0 0
2918 0 0 0
2919 0 0 0
2920 0 0 0
2921 0 0 0
2922 0 0 0
2923 0 0 0
2924 0 0 0
2925 0 0 0
2926 0 0 0
2927 0 0 0
2928 0 0 0
2929 0 0 0
2930 0 0 0
2931 0 0 0
2932 0 0 0
2933 0 0 0
2934 0 0 0
2935 0 0 0
2936 0 0 0
2937 0 0 0
2938 0 0 0
2939 0 0 0
2940 0 0 0
2941 0 0 0
2942 0 0 0
2943 0 0 0
2944 0 0 0
3497 0 0 0
3498 0 0 0
3499 0 0 0
3500 0 0 0
3501 0 0 0
3502 0 0 0
3503 0 0 0
3504 0 0 0
3505 0 0 0
3506 0 0 0
3507 0 0 0
3508 0 0 0
3509 0 0 0
3510 0 0 0
3511 0 0 0
3512 0 0 0
3513 0 0 0
3514 0 0 0
3515 0 0 0
3516 0 0 0
3517 0 0 0
3518 0 0 0
3519 0 0 0
3520 0 0 0
3521 0 0 0
3522 0 0 0
3523 0 0 0
3524 0 0 0
3525 0 0 0
3526 0 0 0
3527 0 0 0
3528 0 0 0
3529 0 0 0
3530 0 0 0
3531 0 0 0
3532 0 0 0
3533 0 0 0
3534 0 0 0
3535 0 0 0
3536 0 0 0
3537 0 0 0
3538 0 0 0
3539 0 0 0
3540 0 0 0
3541 0 0 0
3542 0 0 0
3543 0 0 0
3544 0 0 0
3545 0 0 0
3546 0 0 0
3547 0 0 0
3548 0 0 0
3549 0 0 0
3550 0 0 0
3551 0 0 0
3552 0 0 0
3553 0 0 0
3554 0 0 0
3555 0 0 0
3556 0 0 0
3557 0 0 0
3558 0 0 0
3559 0 0 0
3560 0 0 0
3561 0 0 0
3562 0 0 0
3563 0 0 0
3564 0 0 0
3565 0 0 0
3566 0 0 0
3567 0 0 0
3568 0 0 0
3569 0 0 0
3570 0 0 0
3571 0 0 0
3572 0 0 0
3573 0 0 0
3574 0 0 0
3575 0 0 0
3576 0 0 0
3577 0 0 0
3578 0 0 0
3579 0 0 0
3580 0 0 0
3581 0 0 0
3582 0 0 0
3583 0 0 0
3584 0 0 0
3585 0 0 0
3586 0 0 0
3587 0 0 0
3588 0 0 0
3589 0 0 0
3590 0 0 0
3591 0 0 0
3592 0 0 0
3593 0 0 0
3594 0 0 0
3595 0 0 0
3596 0 0 0
3597 0 0 0
3598 0 0 0
3599 0 0 0
3600 0 0 0
3601 0 0 0
3602 0 0 0
3603 0 0 0
3604 0 0 0
3605 0 0 0
3606 0 0 0
3607 0 0 0
3608 0 0 0
3609 0 0 0
3610 0 0 0
3611 0 0 0
3612 0 0 0
3613 0 0 0
3614 0 0 0
3615 0 0 0
3616 0 0 0
3617 0 0 0
3618 0 0 0
3619 0 0 0
3620 0 0 0
3621 0 0 0
3622 0 0 0
3623 0 0 0
3624 0 0 0
3625 0 0 0
3626 0 0 0
3627 0 0 0
3628 0 0 0
3629 0 0 0
3630 0 0 0
3631 0 0 0
3632 0 0 0
3633 0 0 0
3634 0 0 0
3635 0 0 0
3636 0 0 0
3637 0 0 0
3638 0 0 0
3639 0 0 0
3640 0 0 0
3641 0 0 0
3642 0 0 0
3643 0 0 0
3644 0 0 0
3645 0 0 0
3646 0 0 0
3647 0 0 0
3648 0 0 0
3649 0 0 0
3650 0 0 0
3651 0 0 0
3652 0 0 0
3653 0 0 0
3654 0 0 0
3655 0 0 0
3656 0 0 0
3657 0 0 0
3658 0 0 0
3659 0 0 0
3660 0 0 0
3661 0 0 0
3662 0 0 0
3663 0 0 0
3664 0 0 0
3665 0 0 0
3666 0 0 0
3667 0 0 0
3668 0 0 0
3669 0 0 0
3670 0 0 0
3671 0 0 0
3672 0 0 0
3673 0 0 0
3674 0 0 0
3675 0 0 0
3676 0 0 0
3677 0 0 0
3678 0 0 0
3679 0 0 0
3680 0 0 0
4233 0 0 0
4234 0 0 0
4235 0 0 0
4236 0 0 0
4237 0 0 0
4238 0 0 0
4239 0 0 0
4240 0 0 0
4241 0 0 0
4242 0 0 0
4243 0 0 0
4244 0 0 0
4245 0 0 0
4246 0 0 0
4247 0 0 0
4248 0 0 0
4249 0 0 0
4250 0 0 0
4251 0 0 0
4252 0 0 0
4253 0 0 0
4254 0 0 0
4255 0 0 0
4256 0 0 0
4257 0 0 0
4258 0 0 0
4259 0 0 0
4260 0 0 0
4261 0 0 0
4262 0 0 0
4263 0 0 0
4264 0 0 0
4265 0 0 0
4266 0 0 0
4267 0 0 0
4268 0 0 0
4269 0 0 0
4270 0 0 0
4271 0 0 0
4272 0 0 0
4273 0 0 0
4274 0 0 0
4275 0 0 0
4276 0 0 0
4277 0 0 0
4278 0 0 0
4279 0 0 0
4280 0 0 0
4281 0 0 0
4282 0 0 0
4283 0 0 0
4284 0 0 0
4285 0 0 0
4286 0 0 0
4287 0 0 0
4288 0 0 0
4289 0 0 0
4290 0 0 0
4291 0 0 0
4292 0 0 0
4293 0 0 0
4294 0 0 0
4295 0 0 0
4296 0 0 0
4297 0 0 0
4298 0 0 0
4299 0 0 0
4300 0 0 0
4301 0 0 0
4302 0 0 0
4303 0 0 0
4304 0 0 0
4305 0 0 0
4306 0 0 0
4307 0 0 0
4308 0 0 0
4309 0 0 0
4310 0 0 0
4311 0 0 0
4312 0 0 0
4313 0 0 0
4314 0 0 0
4315 0 0 0
4316 0 0 0
4317 0 0 0
4318 0 0 0
4319 0 0 0
4320 0 0 0
4321 0 0 0
4322 0 0 0
4323 0 0 0
4324 0 0 0
4325 0 0 0
4326 0 0 0
4327 0 0 0
4328 0 0 0
4329 0 0 0
4330 0 0 0
4331 0 0 0
4332 0 0 0
4333 0 0 0
4334 0 0 0
4335 0 0 0
4336 0 0 0
4337 0 0 0
4338 0 0 0
4339 0 0 0
4340 0 0 0
4341 0 0 0
4342 0 0 0
4343 0 0 0
4344 0 0 0
4345 0 0 0
4346 0 0 0
4347 0 0 0
4348 0 0 0
4349 0 0 0
4350 0 0 0
4351 0 0 0
4352 0 0 0
4353 0 0 0
4354 0 0 0
4355 0 0 0
4356 0 0 0
4357 0 0 0
4358 0 0 0
4359 0 0 0
4360 0 0 0
4361 0 0 0
4362 0 0 0
4363 0 0 0
4364 0 0 0
4365 0 0 0
4366 0 0 0
4367 0 0 0
4368 0 0 0
4369 0 0 0
4370 0 0 0
4371 0 0 0
4372 0 0 0
4373 0 0 0
4374 0 0 0
4375 0 0 0
4376 0 0 0
4377 0 0 0
4378 0 0 0
4379 0 0 0
4380 0 0 0
4381 0 0 0
4382 0 0 0
4383 0 0 0
4384 0 0 0
4385 0 0 0
4386 0 0 0
4387 0 0 0
4388 0 0 0
4389 0 0 0
4390 0 0 0
4391 0 0 0
4392 0 0 0
4393 0 0 0
4394 0 0 0
4395 0 0 0
4396 0 0 0
4397 0 0 0
4398 0 0 0
4399 0 0 0
4400 0 0 0
4401 0 0 0
4402 0 0 0
4403 0 0 0
4404 0 0 0
4405 0 0 0
4406 0 0 0
4407 0 0 0
4408 0 0 0
4409 0 0 0
4410 0 0 0
4411 0 0 0
4412 0 0 0
4413 0 0 0
4414 0 0 0
4415 0 0 0
4416 0 0 0
4969 0 0 0
4970 0 0 0
4971 0 0 0
4972 0 0 0
4973 0 0 0
4974 0 0 0
4975 0 0 0
4976 0 0 0
4977 0 0 0
4978 0 0 0
4979 0 0 0
4980 0 0 0
4981 0 0 0
4982 0 0 0
4983 0 0 0
4984 0 0 0
4985 0 0 0
4986 0 0 0
4987 0 0 0
4988 0 0 0
4989 0 0 0
4990 0 0 0
4991 0 0 0
4992 0 0 0
4993 0 0 0
4994 0 0 0
4995 0 0 0
4996 0 0 0
4997 0 0 0
4998 0 0 0
4999 0 0 0
5000 0 0 0
5001 0 0 0
5002 0 0 0
5003 0 0 0
5004 0 0 0
5005 0 0 0
5006 0 0 0
5007 0 0 0
5008 0 0 0
5009 0 0 0
5010 0 0 0
5011 0 0 0
5012 0 0 0
5013 0 0 0
5014 0 0 0
5015 0 0 0
5016 0 0 0
5017 0 0 0
5018 0 0 0
5019 0 0 0
5020 0 0 0
5021 0 0 0
5022 0 0 0
5023 0 0 0
5024 0 0 0
5025 0 0 0
5026 0 0 0
5027 0 0 0
5028 0 0 0
5029 0 0 0
5030 0 0 0
5031 0 0 0
5032 0 0 0
5033 0 0 0
5034 0 0 0
5035 0 0 0
5036 0 0 0
5037 0 0 0
5038 0 0 0
5039 0 0 0
5040 0 0 0
5041 0 0 0
5042 0 0 0
5043 0 0 0
5044 0 0 0
5045 0 0 0
5046 0 0 0
5047 0 0 0
5048 0 0 0
5049 0 0 0
5050 0 0 0
5051 0 0 0
5052 0 0 0
5053 0 0 0
5054 0 0 0
5055 0 0 0
5056 0 0 0
5057 0 0 0
5058 0 0 0
5059 0 0 0
5060 0 0 0
5061 0 0 0
5062 0 0 0
5063 0 0 0
5064 0 0 0
5065 0 0 0
5066 0 0 0
5067 0 0 0
5068 0 0 0
5069 0 0 0
5070 0 0 0
5071 0 0 0
5072 0 0 0
5073 0 0 0
5074 0 0 0
5075 0 0 0
5076 0 0 0
5077 0 0 0
5078 0 0 0
5079 0 0 0
5080 0 0 0
5081 0 0 0
5082 0 0 0
5083 0 0 0
5084 0 0 0
5085 0 0 0
5086 0 0 0
5087 0 0 0
5088 0 0 0
5089 0 0 0
5090 0 0 0
5091 0 0 0
5092 0 0 0
5093 0 0 0
5094 0 0 0
5095 0 0 0
5096 0 0 0
5097 0 0 0
5098 0 0 0
5099 0 0 0
5100 0 0 0
5101 0 0 0
5102 0 0 0
5103 0 0 0
5104 0 0 0
5105 0 0 0
5106 0 0 0
5107 0 0 0
5108 0 0 0
5109 0 0 0
5110 0 0 0
5111 0 0 0
5112 0 0 0
5113 0 0 0
5114 0 0 0
5115 0 0 0
5116 0 0 0
5117 0 0 0
5118 0 0 0
5119 0 0 0
5120 0 0 0
5121 0 0 0
5122 0 0 0
5123 0 0 0
5124 0 0 0
5125 0 0 0
5126 0 0 0
5127 0 0 0
5128 0 0 0
5129 0 0 0
5130 0 0 0
5131 0 0 0
5132 0 0 0
5133 0 0 0
5134 0 0 0
5135 0 0 0
5136 0 0 0
5137 0 0 0
5138 0 0 0
5139 0 0 0
5140 0 0 0
5141 0 0 0
5142 0 0 0
5143 0 0 0
5144 0 0 0
5145 0 0 0
5146 0 0 0
5147 0 0 0
5148 0 0 0
5149 0 0 0
5150 0 0 0
5151 0 0 0
5152 0 0 0
5705 0 0 0
5706 0 0 0
5707 0 0 0
5708 0 0 0
5709 0 0 0
5710 0 0 0
5711 0 0 0
5712 0 0 0
5713 0 0 0
5714 0 0 0
5715 0 0 0
5716 0 0 0
5717 0 0 0
5718 0 0 0
5719 0 0 0
5720 0 0 0
5721 0 0 0
5722 0 0 0
5723 0 0 0
5724 0 0 0
5725 0 0 0
5726 0 0 0
5727 0 0 0
5728 0 0 0
5729 0 0 0
5730 0 0 0
5731 0 0 0
5732 0 0 0
5733 0 0 0
5734 0 0 0
5735 0 0 0
5736 0 0 0
5737 0 0 0
5738 0 0 0
5739 0 0 0
5740 0 0 0
5741 0 0 0
5742 0 0 0
5743 0 0 0
5744 0 0 0
5745 0 0 0
5746 0 0 0
5747 0 0 0
5748 0 0 0
5749 0 0 0
5750 0 0 0
5751 0 0 0
5752 0 0 0
5753 0 0 0
5754 0 0 0
5755 0 0 0
5756 0 0 0
5757 0 0 0
5758 0 0 0
5759 0 0 0
5760 0 0 0
5761 0 0 0
5762 0 0 0
5763 0 0 0
5764 0 0 0
5765 0 0 0
5766 0 0 0
5767 0 0 0
5768 0 0 0
5769 0 0 0
5770 0 0 0
5771 0 0 0
5772 0 0 0
5773 0 0 0
5774 0 0 0
5775 0 0 0
5776 0 0 0
5777 0 0 0
5778 0 0 0
5779 0 0 0
5780 0 0 0
5781 0 0 0
5782 0 0 0
5783 0 0 0
5784 0 0 0
5785 0 0 0
5786 0 0 0
5787 0 0 0
5788 0 0 0
5789 0 0 0
5790 0 0 0
5791 0 0 0
5792 0 0 0
5793 0 0 0
5794 0 0 0
5795 0 0 0
5796 0 0 0
5797 0 0 0
5798 0 0 0
5799 0 0 0
5800 0 0 0
5801 0 0 0
5802 0 0 0
5803 0 0 0
5804 0 0 0
5805 0 0 0
5806 0 0 0
5807 0 0 0
5808 0 0 0
5809 0 0 0
5810 0 0 0
5811 0 0 0
5812 0 0 0
5813 0 0 0
5814 0 0 0
5815 0 0 0
5816 0 0 0
5817 0 0 0
5818 0 0 0
5819 0 0 0
5820 0 0 0
5821 0 0 0
5822 0 0 0
5823 0 0 0
5824 0 0 0
5825 0 0 0
5826 0 0 0
5827 0 0 0
5828 0 0 0
5829 0 0 0
5830 0 0 0
5831 0 0 0
5832 0 0 0
5833 0 0 0
5834 0 0 0
5835 0 0 0
5836 0 0 0
5837 0 0 0
5838 0 0 0
5839 0 0 0
5840 0 0 0
5841 0 0 0
5842 0 0 0
5843 0 0 0
5844 0 0 0
5845 0 0 0
5846 0 0 0
5847 0 0 0
5848 0 0 0
5849 0 0 0
5850 0 0 0
5851 0 0 0
5852 0 0 0
5853 0 0 0
5854 0 0 0
5855 0 0 0
5856 0 0 0
5857 0 0 0
5858 0 0 0
5859 0 0 0
5860 0 0 0
5861 0 0 0
5862 0 0 0
5863 0 0 0
5864 0 0 0
5865 0 0 0
5866 0 0 0
5867 0 0 0
5868 0 0 0
5869 0 0 0
5870 0 0 0
5871 0 0 0
5872 0 0 0
5873 0 0 0
5874 0 0 0
5875 0 0 0
5876 0 0 0
5877 0 0 0
5878 0 0 0
5879 0 0 0
5880 0 0 0
5881 0 0 0
5882 0 0 0
5883 0 0 0
5884 0 0 0
5885 0 0 0
5886 0 0 0
5887 0 0 0
5888 0 0 0
6441 0 0 0
6442 0 0 0
6443 0 0 0
6444 0 0 0
6445 0 0 0
6446 0 0 0
6447 0 0 0
6448 0 0 0
6449 0 0 0
6450 0 0 0
6451 0 0 0
6452 0 0 0
6453 0 0 0
6454 0 0 0
6455 0 0 0
6456 0 0 0
6457 0 0 0
6458 0 0 0
6459 0 0 0
6460 0 0 0
6461 0 0 0
6462 0 0 0
6463 0 0 0
6464 0 0 0
6465 0 0 0
6466 0 0 0
6467 0 0 0
6468 0 0 0
6469 0 0 0
6470 0 0 0
6471 0 0 0
6472 0 0 0
6473 0 0 0
6474 0 0 0
6475 0 0 0
6476 0 0 0
6477 0 0 0
6478 0 0 0
6479 0 0 0
6480 0 0 0
6481 0 0 0
6482 0 0 0
6483 0 0 0
6484 0 0 0
6485 0 0 0
6486 0 0 0
6487 0 0 0
6488 0 0 0
6489 0 0 0
6490 0 0 0
6491 0 0 0
6492 0 0 0
6493 0 0 0
6494 0 0 0
6495 0 0 0
6496 0 0 0
6497 0 0 0
6498 0 0 0
6499 0 0 0
6500 0 0 0
6501 0 0 0
6502 0 0 0
6503 0 0 0
6504 0 0 0
6505 0 0 0
6506 0 0 0
6507 0 0 0
6508 0 0 0
6509 0 0 0
6510 0 0 0
6511 0 0 0
6512 0 0 0
6513 0 0 0
6514 0 0 0
6515 0 0 0
6516 0 0 0
6517 0 0 0
6518 0 0 0
6519 0 0 0
6520 0 0 0
6521 0 0 0
6522 0 0 0
6523 0 0 0
6524 0 0 0
6525 0 0 0
6526 0 0 0
6527 0 0 0
6528 0 0 0
6529 0 0 0
6530 0 0 0
6531 0 0 0
6532 0 0 0
6533 0 0 0
6534 0 0 0
6535 0 0 0
6536 0 0 0
6537 0 0 0
6538 0 0 0
6539 0 0 0
6540 0 0 0
6541 0 0 0
6542 0 0 0
6543 0 0 0
6544 0 0 0
6545 0 0 0
6546 0 0 0
6547 0 0 0
6548 0 0 0
6549 0 0 0
6550 0 0 0
6551 0 0 0
6552 0 0 0
6553 0 0 0
6554 0 0 0
6555 0 0 0
6556 0 0 0
6557 0 0 0
6558 0 0 0
6559 0 0 0
6560 0 0 0
6561 0 0 0
6562 0 0 0
6563 0 0 0
6564 0 0 0
6565 0 0 0
6566 0 0 0
6567 0 0 0
6568 0 0 0
6569 0 0 0
6570 0 0 0
6571 0 0 0
6572 0 0 0
6573 0 0 0
6574 0 0 0
6575 0 0 0
6576 0 0 0
6577 0 0 0
6578 0 0 0
6579 0 0 0
6580 0 0 0
6581 0 0 0
6582 0 0 0
6583 0 0 0
6584 0 0 0
6585 0 0 0
6586 0 0 0
6587 0 0 0
6588 0 0 0
6589 0 0 0
6590 0 0 0
6591 0 0 0
6592 0 0 0
6593 0 0 0
6594 0 0 0
6595 0 0 0
6596 0 0 0
6597 0 0 0
6598 0 0 0
6599 0 0 0
6600 0 0 0
6601 0 0 0
6602 0 0 0
6603 0 0 0
6604 0 0 0
6605 0 0 0
6606 0 0 0
6607 0 0 0
6608 0 0 0
6609 0 0 0
6610 0 0 0
6611 0 0 0
6612 0 0 0
6613 0 0 0
6614 0 0 0
6615 0 0 0
6616 0 0 0
6617 0 0 0
6618 0 0 0
6619 0 0 0
6620 0 0 0
6621 0 0 0
6622 0 0 0
6623 0 0 0
6624 0 0 0
7177 0 0 0
7178 0 0 0
7179 0 0 0
7180 0 0 0
7181 0 0 0
7182 0 0 0
7183 0 0 0
7184 0 0 0
7185 0 0 0
7186 0 0 0
7187 0 0 0
7188 0 0 0
7189 0 0 0
7190 0 0 0
7191 0 0 0
7192 0 0 0
7193 0 0 0
7194 0 0 0
7195 0 0 0
7196 0 0 0
7197 0 0 0
7198 0 0 0
7199 0 0 0
7200 0 0 0
7201 0 0 0
7202 0 0 0
7203 0 0 0
7204 0 0 0
7205 0 0 0
7206 0 0 0
7207 0 0 0
7208 0 0 0
7209 0 0 0
7210 0 0 0
7211 0 0 0
7212 0 0 0
7213 0 0 0
7214 0 0 0
7215 0 0 0
7216 0 0 0
7217 0 0 0
7218 0 0 0
7219 0 0 0
7220 0 0 0
7221 0 0 0
7222 0 0 0
7223 0 0 0
7224 0 0 0
7225 0 0 0
7226 0 0 0
7227 0 0 0
7228 0 0 0
7229 0 0 0
7230 0 0 0
7231 0 0 0
7232 0 0 0
7233 0 0 0
7234 0 0 0
7235 0 0 0
7236 0 0 0
7237 0 0 0
7238 0 0 0
7239 0 0 0
7240 0 0 0
7241 0 0 0
7242 0 0 0
7243 0 0 0
7244 0 0 0
7245 0 0 0
7246 0 0 0
7247 0 0 0
7248 0 0 0
7249 0 0 0
7250 0 0 0
7251 0 0 0
7252 0 0 0
7253 0 0 0
7254 0 0 0
7255 0 0 0
7256 0 0 0
7257 0 0 0
7258 0 0 0
7259 0 0 0
7260 0 0 0
7261 0 0 0
7262 0 0 0
7263 0 0 0
7264 0 0 0
7265 0 0 0
7266 0 0 0
7267 0 0 0
7268 0 0 0
7269 0 0 0
7270 0 0 0
7271 0 0 0
7272 0 0 0
7273 0 0 0
7274 0 0 0
7275 0 0 0
7276 0 0 0
7277 0 0 0
7278 0 0 0
7279 0 0 0
7280 0 0 0
7281 0 0 0
7282 0 0 0
7283 0 0 0
7284 0 0 0
7285 0 0 0
7286 0 0 0
7287 0 0 0
7288 0 0 0
7289 0 0 0
7290 0 0 0
7291 0 0 0
7292 0 0 0
7293 0 0 0
7294 0 0 0
7295 0 0 0
7296 0 0 0
7297 0 0 0
7298 0 0 0
7299 0 0 0
7300 0 0 0
7301 0 0 0
7302 0 0 0
7303 0 0 0
7304 0 0 0
7305 0 0 0
7306 0 0 0
7307 0 0 0
7308 0 0 0
7309 0 0 0
7310 0 0 0
7311 0 0 0
7312 0 0 0
7313 0 0 0
7314 0 0 0
7315 0 0 0
7316 0 0 0
7317 0 0 0
7318 0 0 0
7319 0 0 0
7320 0 0 0
7321 0 0 0
7322 0 0 0
7323 0 0 0
7324 0 0 0
7325 0 0 0
7326 0 0 0
7327 0 0 0
7328 0 0 0
7329 0 0 0
7330 0 0 0
7331 0 0 0
7332 0 0 0
7333 0 0 0
7334 0 0 0
7335 0 0 0
7336 0 0 0
7337 0 0 0
7338 0 0 0
7339 0 0 0
7340 0 0 0
7341 0 0 0
7342 0 0 0
7343 0 0 0
7344 0 0 0
7345 0 0 0
7346 0 0 0
7347 0 0 0
7348 0 0 0
7349 0 0 0
7350 0 0 0
7351 0 0 0
7352 0 0 0
7353 0 0 0
7354 0 0 0
7355 0 0 0
7356 0 0 0
7357 0 0 0
7358 0 0 0
7359 0 0 0
7360 0 0 0
7913 0 0 0
7914 0 0 0
7915 0 0 0
7916 0 0 0
7917 0 0 0
7918 0 0 0
7919 0 0 0
7920 0 0 0
7921 0 0 0
7922 0 0 0
7923 0 0 0
7924 0 0 0
7925 0 0 0
7926 0 0 0
7927 0 0 0
7928 0 0 0
7929 0 0 0
7930 0 0 0
7931 0 0 0
7932 0 0 0
7933 0 0 0
7934 0 0 0
7935 0 0 0
7936 0 0 0
7937 0 0 0
7938 0 0 0
7939 0 0 0
7940 0 0 0
7941 0 0 0
7942 0 0 0
7943 0 0 0
7944 0 0 0
7945 0 0 0
7946 0 0 0
7947 0 0 0
7948 0 0 0
7949 0 0 0
7950 0 0 0
7951 0 0 0
7952 0 0 0
7953 0 0 0
7954 0 0 0
7955 0 0 0
7956 0 0 0
7957 0 0 0
7958 0 0 0
7959 0 0 0
7960 0 0 0
7961 0 0 0
7962 0 0 0
7963 0 0 0
7964 0 0 0
7965 0 0 0
7966 0 0 0
7967 0 0 0
7968 0 0 0
7969 0 0 0
7970 0 0 0
7971 0 0 0
7972 0 0 0
7973 0 0 0
7974 0 0 0
7975 0 0 0
7976 0 0 0
7977 0 0 0
7978 0 0 0
7979 0 0 0
7980 0 0 0
7981 0 0 0
7982 0 0 0
7983 0 0 0
7984 0 0 0
7985 0 0 0
7986 0 0 0
7987 0 0 0
7988 0 0 0
7989 0 0 0
7990 0 0 0
7991 0 0 0
7992 0 0 0
7993 0 0 0
7994 0 0 0
7995 0 0 0
7996 0 0 0
7997 0 0 0
7998 0 0 0
7999 0 0 0
8000 0 0 0
8001 0 0 0
8002 0 0 0
8003 0 0 0
8004 0 0 0
8005 0 0 0
8006 0 0 0
8007 0 0 0
8008 0 0 0
8009 0 0 0
8010 0 0 0
8011 0 0 0
8012 0 0 0
8013 0 0 0
8014 0 0 0
8015 0 0 0
8016 0 0 0
8017 0 0 0
8018 0 0 0
8019 0 0 0
8020 0 0 0
8021 0 0 0
8022 0 0 0
8023 0 0 0
8024 0 0 0
8025 0 0 0
8026 0 0 0
8027 0 0 0
8028 0 0 0
8029 0 0 0
8030 0 0 0
8031 0 0 0
8032 0 0 0
8033 0 0 0
8034 0 0 0
8035 0 0 0
8036 0 0 0
8037 0 0 0
8038 0 0 0
8039 0 0 0
8040 0 0 0
8041 0 0 0
8042 0 0 0
8043 0 0 0
8044 0 0 0
8045 0 0 0
8046 0 0 0
8047 0 0 0
8048 0 0 0
8049 0 0 0
8050 0 0 0
8051 0 0 0
8052 0 0 0
8053 0 0 0
8054 0 0 0
8055 0 0 0
8056 0 0 0
8057 0 0 0
8058 0 0 0
8059 0 0 0
8060 0 0 0
8061 0 0 0
8062 0 0 0
8063 0 0 0
8064 0 0 0
8065 0 0 0
8066 0 0 0
8067 0 0 0
8068 0 0 0
8069 0 0 0
8070 0 0 0
8071 0 0 0
8072 0 0 0
8073 0 0 0
8074 0 0 0
8075 0 0 0
8076 0 0 0
8077 0 0 0
8078 0 0 0
8079 0 0 0
8080 0 0 0
8081 0 0 0
8082 0 0 0
8083 0 0 0
8084 0 0 0
8085 0 0 0
8086 0 0 0
8087 0 0 0
8088 0 0 0
8089 0 0 0
8090 0 0 0
8091 0 0 0
8092 0 0 0
8093 0 0 0
8094 0 0 0
8095 0 0 0
8096 0 0 0
